     Program PWSCF v.6.7GPU starts on 11Feb2022 at 19: 3:57

     R & G space division:  proc/nbgrp/npool/nimage =      16
     Reading input from /storage/coda1/p-amedford6/0/bchen380/B22/qe_3962619.sched-torque.pace.gatech.edu/pw.inp
Warning: card &CELL ignored
Warning: card   CELL_DYNAMICS='IPI', ignored
Warning: card / ignored

     Current dimensions of program PWSCF are:
     Max number of different atomic species (ntypx) = 10
     Max number of k-points (npk) =  40000
     Max angular momentum in pseudopotentials (lmaxx) =  3
     Message from routine cell_base_init:
     DEPRECATED: use true lattice parameter, not A to a.u. conversion factor
     file O.UPF: wavefunction(s)  2P renormalized

     IMPORTANT: XC functional enforced from input :
     Exchange-correlation= BEEF-VDW
                           (   1   4  43  14   2   0   0)
     Any further DFT definition will be discarded
     Please, verify this is what you really want

  @ DRIVER MODE: Connecting to
 qe_1064200_3962619.sched-torque.pace.gatech.edu5nrs6sf8_scratch
  using UNIX socket
  @ DRIVER MODE: Message from server: STATUS
  @ DRIVER MODE: Message from server: INIT
  @ DRIVER MODE: Receiving replica           0          -1
  @ DRIVER MODE: Receiving encoded integer          25
  @ DRIVER MODE:  SCF:  T  FORCE:  T  STRESS:  F  VC:  F  ENSEMBLE:  F
  @ DRIVER MODE:  SCF:  T  FORCE:  T  STRESS:  F  VC:  F  ENSEMBLE:  F

     Using Slab Decomposition

     bravais-lattice index     =            0
     lattice parameter (alat)  =       1.8897  a.u.
     unit-cell volume          =    6658.9804 (a.u.)^3
     number of atoms/cell      =           48
     number of atomic types    =            3
     number of electrons       =       381.00
     number of Kohn-Sham states=          200
     kinetic-energy cutoff     =      36.7493  Ry
     charge density cutoff     =     367.4932  Ry
     scf convergence threshold =      7.3E-08
     mixing beta               =       0.0500
     number of iterations used =            8  plain     mixing
     Exchange-correlation= BEEF-VDW
                           (   1   4  43  14   2   0   0)

     celldm(1)=   1.889726  celldm(2)=   0.000000  celldm(3)=   0.000000
     celldm(4)=   0.000000  celldm(5)=   0.000000  celldm(6)=   0.000000

     crystal axes: (cart. coord. in units of alat)
               a(1) = (   6.579727   0.000000   0.000000 )
               a(2) = (  -0.000775   5.961596   0.000000 )
               a(3) = (   0.000000   0.000000  25.155947 )

     reciprocal axes: (cart. coord. in units 2 pi/alat)
               b(1) = (  0.151982  0.000020  0.000000 )
               b(2) = (  0.000000  0.167740  0.000000 )
               b(3) = (  0.000000  0.000000  0.039752 )

     PseudoPot. # 1 for Ti read from file:
     /storage/coda1/p-amedford6/0/shared/rich_project_chbe-medford/medford-share/data/pseudos_module/espresso/esp_pseudos_old/Ti.UPF
     MD5 check sum: 88a00a6731bd790ddea75d31a80cb452
     Pseudo is Ultrasoft + core correction, Zval = 12.0
     Generated by new atomic code, or converted to UPF format
     Using radial grid of  851 points,  6 beta functions with:
                l(1) =   0
                l(2) =   0
                l(3) =   1
                l(4) =   1
                l(5) =   2
                l(6) =   2
     Q(r) pseudized with  6 coefficients,  rinner =    1.000   1.000   1.000
                                                       1.000   1.000

     PseudoPot. # 2 for O  read from file:
     /storage/coda1/p-amedford6/0/shared/rich_project_chbe-medford/medford-share/data/pseudos_module/espresso/esp_pseudos_old/O.UPF
     MD5 check sum: 0234752ac141de4415c5fc33072bef88
     Pseudo is Projector augmented-wave + core cor, Zval =  6.0
     Generated using "atomic" code by A. Dal Corso  v.5.0.99 svn rev. 10869
     Shape of augmentation charge: BESSEL
     Using radial grid of 1095 points,  4 beta functions with:
                l(1) =   0
                l(2) =   0
                l(3) =   1
                l(4) =   1
     Q(r) pseudized with 0 coefficients

     PseudoPot. # 3 for B  read from file:
     /storage/coda1/p-amedford6/0/shared/rich_project_chbe-medford/medford-share/data/pseudos_module/espresso/esp_pseudos_old/B.UPF
     MD5 check sum: cc6de2960df11db49a60e589f9ebb39b
     Pseudo is Ultrasoft + core correction, Zval =  3.0
     Generated by new atomic code, or converted to UPF format
     Using radial grid of  781 points,  4 beta functions with:
                l(1) =   0
                l(2) =   0
                l(3) =   1
                l(4) =   1
     Q(r) pseudized with  8 coefficients,  rinner =    1.100   1.100   1.100

     atomic species   valence    mass     pseudopotential
        Ti1           12.00    47.86700     Ti( 1.00)
        O1             6.00    15.99900     O ( 1.00)
        B1             3.00    10.81000     B ( 1.00)

     Starting magnetic structure
     atomic species   magnetization
        Ti1          0.000
        O1           0.000
        B1           0.000

     No symmetry found

   Cartesian axes

     site n.     atom                  positions (alat units)
         1           Ti1 tau(   1) = (   0.0004258   2.9801865   6.0000000  )
         2           Ti1 tau(   2) = (   3.2906075   1.4906267   6.0002472  )
         3           O1  tau(   3) = (   0.0006271   0.0005054   7.9858123  )
         4           O1  tau(   4) = (   3.2906025   0.0005020   7.3038282  )
         5           O1  tau(   5) = (   4.5942328   1.4918067   9.2879030  )
         6           O1  tau(   6) = (   1.9868534   1.4903216   9.2879459  )
         7           Ti1 tau(   7) = (   3.2905683   2.9818392   9.1597947  )
         8           Ti1 tau(   8) = (   0.0009689   1.5052867   9.3302970  )
         9           O1  tau(   9) = (   3.2907689   0.0016648  11.3563317  )
        10           O1  tau(  10) = (   0.0007044   0.0001637  10.5878211  )
        11           O1  tau(  11) = (   1.3004573   1.4911895  12.6196604  )
        12           O1  tau(  12) = (   5.2803146   1.4910465  12.6198809  )
        13           Ti1 tau(  13) = (   0.0003545   2.9813121  12.7572432  )
        14           Ti1 tau(  14) = (   3.2903971   1.4912328  12.5002874  )
        15           O1  tau(  15) = (  -0.0002320   5.9576404  14.5977444  )
        16           O1  tau(  16) = (   3.2901645   0.0058045  13.9855309  )
        17           O1  tau(  17) = (   4.5492778   1.5221801  16.1329724  )
        18           O1  tau(  18) = (   2.0311275   1.5222091  16.1330501  )
        19           Ti1 tau(  19) = (   3.2902041   2.9895352  15.7368220  )
        20           Ti1 tau(  20) = (   0.0001478   1.4235607  15.9669019  )
        21           O1  tau(  21) = (   3.2904802   0.0005063   4.7018136  )
        22           O1  tau(  22) = (   0.0000052   5.9613278  17.1620205  )
        23           O1  tau(  23) = (   1.3043587   1.4918075   6.0039043  )
        24           O1  tau(  24) = (   5.2767064   1.4903225   6.0039473  )
        25           Ti1 tau(  25) = (   0.0000382   5.9609847   6.0000000  )
        26           Ti1 tau(  26) = (   3.2902200   4.4714249   6.0002472  )
        27           O1  tau(  27) = (   0.0002396   2.9813036   7.9858123  )
        28           O1  tau(  28) = (   3.2902150   2.9813002   7.3038282  )
        29           O1  tau(  29) = (   4.5938453   4.4726049   9.2879030  )
        30           O1  tau(  30) = (   1.9864658   4.4711199   9.2879459  )
        31           Ti1 tau(  31) = (   3.2909982   0.0016570   9.1583503  )
        32           Ti1 tau(  32) = (   0.0005865   4.4518293   9.3323505  )
        33           O1  tau(  33) = (   3.2903422   2.9801403  11.3468332  )
        34           O1  tau(  34) = (   0.0003571   2.9798178  10.5649370  )
        35           O1  tau(  35) = (   1.3005412   4.4692167  12.6173387  )
        36           O1  tau(  36) = (   5.2794693   4.4690741  12.6175999  )
        37           Ti1 tau(  37) = (  -0.0000806   5.9612980  12.5816508  )
        38           Ti1 tau(  38) = (   3.2900041   4.4658170  12.4917948  )
        39           O1  tau(  39) = (   0.0004188   2.9814100  14.6485654  )
        40           O1  tau(  40) = (   3.2900918   2.9860882  13.9373905  )
        41           O1  tau(  41) = (   4.5492228   4.4522151  16.1330783  )
        42           O1  tau(  42) = (   2.0303863   4.4519659  16.1333203  )
        43           Ti1 tau(  43) = (   3.2899546   0.0061948  15.7807570  )
        44           Ti1 tau(  44) = (  -0.0001637   4.5606593  15.9768108  )
        45           O1  tau(  45) = (   3.2900926   2.9813045   4.7018136  )
        46           B1  tau(  46) = (   6.5792260   2.9590799  17.8640153  )
        47           O1  tau(  47) = (   1.3039711   4.4726057   6.0039043  )
        48           O1  tau(  48) = (   5.2763189   4.4711207   6.0039473  )

     number of k points=    10  Fermi-Dirac smearing, width (Ry)=  0.0007
                       cart. coord. in units 2pi/alat
        k(    1) = (   0.0000000   0.0000000   0.0000000), wk =   0.0625000
        k(    2) = (   0.0000000   0.0419351   0.0000000), wk =   0.1250000
        k(    3) = (   0.0000000  -0.0838702   0.0000000), wk =   0.0625000
        k(    4) = (   0.0379955   0.0000049   0.0000000), wk =   0.1250000
        k(    5) = (   0.0379955   0.0419400   0.0000000), wk =   0.1250000
        k(    6) = (   0.0379955  -0.0838652   0.0000000), wk =   0.1250000
        k(    7) = (   0.0379955  -0.0419301   0.0000000), wk =   0.1250000
        k(    8) = (  -0.0759910  -0.0000099   0.0000000), wk =   0.0625000
        k(    9) = (  -0.0759910   0.0419252   0.0000000), wk =   0.1250000
        k(   10) = (  -0.0759910  -0.0838800   0.0000000), wk =   0.0625000

     Check: negative core charge=   -0.000007
     Generating pointlists ...
     new r_m :   0.7405 (alat units)  1.3994 (a.u.) for type    1
     new r_m :   0.7405 (alat units)  1.3994 (a.u.) for type    2
     new r_m :   1.0068 (alat units)  1.9025 (a.u.) for type    3

     Initial potential from superposition of free atoms

     starting charge  364.99897, renormalised to  381.00000

     negative rho (up, down):  1.168E-02 1.168E-02

     %%%%%%%%%%%%%%%%%%%%%%%%%%%%%%%%%%%%%%%%%%%%%%%%%%%%%%%%%%%%%%%%%%%%%%%%
     %                                                                      %
     % You are using vdW-DF, which was implemented by the Thonhauser group. %
     % Please cite the following two papers that made this development      %
     % possible and the two reviews that describe the various versions:     %
     %                                                                      %
     %   T. Thonhauser et al., PRL 115, 136402 (2015).                      %
     %   T. Thonhauser et al., PRB 76, 125112 (2007).                       %
     %   K. Berland et al., Rep. Prog. Phys. 78, 066501 (2015).             %
     %   D.C. Langreth et al., J. Phys.: Condens. Matter 21, 084203 (2009). %
     %                                                                      %
     %                                                                      %
[...]

[...]

     Forces acting on atoms (cartesian axes, Ry/au):

     atom    1 type  1   force =     0.00007670    0.00006763    0.11251918
     atom    2 type  1   force =    -0.00008377    0.00013448   -0.17799954
     atom    3 type  2   force =     0.00005427    0.00003867   -0.03433588
     atom    4 type  2   force =     0.00002484    0.00004261    0.04816209
     atom    5 type  2   force =    -0.02159930   -0.00098009    0.00433593
     atom    6 type  2   force =     0.02151994   -0.00049025    0.00434247
     atom    7 type  1   force =     0.00000790    0.00014607   -0.00347003
     atom    8 type  1   force =    -0.00001272   -0.00079473   -0.00018919
     atom    9 type  2   force =    -0.00001555   -0.00000930    0.00302913
     atom   10 type  2   force =     0.00001751   -0.00005239   -0.00358846
     atom   11 type  2   force =    -0.00052426    0.00096250   -0.00044816
     atom   12 type  2   force =     0.00051715    0.00096385   -0.00047042
     atom   13 type  1   force =     0.00000346   -0.00018855   -0.00016841
     atom   14 type  1   force =    -0.00000342    0.00114962    0.00021779
     atom   15 type  2   force =     0.00001012   -0.00021603    0.00693714
     atom   16 type  2   force =     0.00003129   -0.00043332   -0.00333077
     atom   17 type  2   force =    -0.00440295   -0.00054685   -0.00328944
     atom   18 type  2   force =     0.00444308   -0.00057325   -0.00331179
     atom   19 type  1   force =    -0.00005050   -0.00148983    0.00101140
     atom   20 type  1   force =     0.00003683   -0.00886552    0.01889874
     atom   21 type  2   force =     0.00006263    0.00008499    0.10239465
     atom   22 type  2   force =    -0.00002395   -0.00221343   -0.01498850
     atom   23 type  2   force =    -0.06756847    0.00067294   -0.03072863
     atom   24 type  2   force =     0.06748846    0.00110685   -0.03076949
     atom   25 type  1   force =     0.00007632   -0.00000813    0.12233004
     atom   26 type  1   force =    -0.00008524   -0.00020824   -0.17798603
     atom   27 type  2   force =     0.00005661   -0.00005234   -0.03216589
     atom   28 type  2   force =     0.00002330   -0.00000269    0.04821916
     atom   29 type  2   force =    -0.02152447    0.00035119    0.00453809
     atom   30 type  2   force =     0.02145695    0.00084090    0.00454025
     atom   31 type  1   force =     0.00000577   -0.00018676   -0.00371975
     atom   32 type  1   force =    -0.00001269    0.00062410   -0.00015235
     atom   33 type  2   force =    -0.00001638    0.00000580    0.00333734
     atom   34 type  2   force =     0.00001522    0.00031374   -0.00435640
     atom   35 type  2   force =    -0.00081346   -0.00067021   -0.00041326
     atom   36 type  2   force =     0.00080321   -0.00067587   -0.00043265
     atom   37 type  1   force =    -0.00000209    0.00006467    0.00225038
     atom   38 type  1   force =    -0.00000008   -0.00098413    0.00137429
     atom   39 type  2   force =    -0.00001664   -0.00100771    0.00995472
     atom   40 type  2   force =     0.00000655   -0.00018013   -0.00296872
     atom   41 type  2   force =    -0.00569677    0.00029637   -0.00335918
     atom   42 type  2   force =     0.00571801    0.00031236   -0.00337655
     atom   43 type  1   force =    -0.00000245    0.00061078    0.00320140
     atom   44 type  1   force =     0.00000573    0.01365561    0.01851011
     atom   45 type  2   force =     0.00006261    0.00008715    0.10241438
     atom   46 type  3   force =     0.00000559    0.00003518   -0.02500554
     atom   47 type  2   force =    -0.06756930   -0.00108629   -0.03072693
     atom   48 type  2   force =     0.06749445   -0.00065202   -0.03076670

     Total force =     0.380823     Total SCF correction =     0.000409
  @ DRIVER MODE: Message from server: STATUS
  @ DRIVER MODE: Message from server: GETFORCE
  @ DRIVER MODE: Returning v,forces,stress,ensemble

     Writing output data file ./calc.save/
  @ DRIVER MODE: Message from server: STATUS
  @ DRIVER MODE: Message from server: INIT
  @ DRIVER MODE: Receiving replica           0           0
  @ DRIVER MODE: Receiving encoded integer          25
  @ DRIVER MODE:  SCF:  T  FORCE:  T  STRESS:  F  VC:  F  ENSEMBLE:  F
  @ DRIVER MODE:  SCF:  T  FORCE:  T  STRESS:  F  VC:  F  ENSEMBLE:  F
  @ DRIVER MODE: Message from server: STATUS
  @ DRIVER MODE: Message from server: POSDATA
  @ DRIVER MODE: Reading and sharing positions
  @ DRIVER MODE: Received positions
     NEW-OLD atomic charge density approx. for the potential

     Check: negative core charge=   -0.000007

[...]

     Generating pointlists ...
     new r_m :   0.7213 (alat units)  1.3630 (a.u.) for type    1
     new r_m :   0.7213 (alat units)  1.3630 (a.u.) for type    2
     new r_m :   0.9772 (alat units)  1.8467 (a.u.) for type    3

[...]

     Generating pointlists ...

[...]

     Generating pointlists ...
     new r_m :   0.9336 (alat units)  1.7642 (a.u.) for type    3

[...]

     Writing output data file ./calc.save/
  @ DRIVER MODE: Message from server: STATUS
  @ DRIVER MODE: Message from server: INIT
  @ DRIVER MODE: Receiving replica           0           0
  @ DRIVER MODE: Receiving encoded integer          25
  @ DRIVER MODE:  SCF:  T  FORCE:  T  STRESS:  F  VC:  F  ENSEMBLE:  F
  @ DRIVER MODE:  SCF:  T  FORCE:  T  STRESS:  F  VC:  F  ENSEMBLE:  F
  @ DRIVER MODE: Message from server: STATUS
  @ DRIVER MODE: Message from server: POSDATA
  @ DRIVER MODE: Reading and sharing positions
  @ DRIVER MODE: Received positions
     NEW-OLD atomic charge density approx. for the potential

     Check: negative core charge=   -0.000007

[...]

     Generating pointlists ...

     Self-consistent Calculation

     iteration #  1     ecut=    36.75 Ry     beta= 0.05
     Davidson diagonalization with overlap
     c_bands:  1 eigenvalues not converged
     c_bands:  2 eigenvalues not converged
     c_bands:  2 eigenvalues not converged
     c_bands:  1 eigenvalues not converged
     c_bands:  1 eigenvalues not converged
     c_bands:  2 eigenvalues not converged
     c_bands:  1 eigenvalues not converged
     c_bands:  2 eigenvalues not converged
     c_bands:  1 eigenvalues not converged
     c_bands:  1 eigenvalues not converged
     ethr =  2.53E-11,  avg # of iterations = 17.3

[...]

     total energy              =   -3247.85668502 Ry
     estimated scf accuracy    <       0.00000013 Ry

[...]

     iteration # 13     ecut=    36.75 Ry     beta= 0.05
     Davidson diagonalization with overlap
     ethr =  3.42E-11,  avg # of iterations =  5.2

[...]

     Adding external electric field

     Computed dipole along edir(3) :
        Dipole                0.2121 Ry au,          0.5390 Debye
        Dipole field          0.0004 Ry au,

        Potential amp.       -0.0371 Ry
        Total length         46.3494 bohr

     Magnetic moment per site  (integrated on atomic sphere of radius R)
     atom   1 (R=0.721)  charge=  7.9053  magn= -0.0293
     atom   2 (R=0.721)  charge=  7.8939  magn= -0.0008
     atom   3 (R=0.721)  charge=  4.8761  magn=  0.0019
     atom   4 (R=0.721)  charge=  4.9390  magn=  0.0004
     atom   5 (R=0.721)  charge=  4.9007  magn=  0.0004
     atom   6 (R=0.721)  charge=  4.9007  magn=  0.0004
     atom   7 (R=0.721)  charge=  7.8876  magn= -0.0023
     atom   8 (R=0.721)  charge=  7.8806  magn= -0.0071
     atom   9 (R=0.721)  charge=  4.9128  magn=  0.0011
     atom  10 (R=0.721)  charge=  4.8882  magn=  0.0019
     atom  11 (R=0.721)  charge=  4.9003  magn=  0.0021
     atom  12 (R=0.721)  charge=  4.9003  magn=  0.0021
     atom  13 (R=0.721)  charge=  7.8876  magn= -0.0223
     atom  14 (R=0.721)  charge=  7.8878  magn= -0.0096
     atom  15 (R=0.721)  charge=  4.8893  magn= -0.0282
     atom  16 (R=0.721)  charge=  4.9074  magn=  0.0011
     atom  17 (R=0.721)  charge=  4.8885  magn=  0.0043
     atom  18 (R=0.721)  charge=  4.8885  magn=  0.0043
     atom  19 (R=0.721)  charge=  7.9193  magn= -0.0527
     atom  20 (R=0.721)  charge=  7.9358  magn= -0.2737
     atom  21 (R=0.721)  charge=  4.7887  magn=  0.0009
     atom  22 (R=0.721)  charge=  4.8762  magn= -0.0382
     atom  23 (R=0.721)  charge=  4.8945  magn=  0.0033
     atom  24 (R=0.721)  charge=  4.8945  magn=  0.0033
     atom  25 (R=0.721)  charge=  7.9050  magn= -0.0256
     atom  26 (R=0.721)  charge=  7.8939  magn= -0.0008
     atom  27 (R=0.721)  charge=  4.8855  magn=  0.0023
     atom  28 (R=0.721)  charge=  4.9389  magn=  0.0003
     atom  29 (R=0.721)  charge=  4.9004  magn=  0.0004
     atom  30 (R=0.721)  charge=  4.9005  magn=  0.0004
     atom  31 (R=0.721)  charge=  7.8876  magn= -0.0030
     atom  32 (R=0.721)  charge=  7.8810  magn= -0.0072
     atom  33 (R=0.721)  charge=  4.9118  magn=  0.0009
     atom  34 (R=0.721)  charge=  4.8847  magn=  0.0014
     atom  35 (R=0.721)  charge=  4.9003  magn=  0.0020
     atom  36 (R=0.721)  charge=  4.9003  magn=  0.0020
     atom  37 (R=0.721)  charge=  7.8813  magn= -0.0483
     atom  38 (R=0.721)  charge=  7.8878  magn= -0.0097
     atom  39 (R=0.721)  charge=  4.8968  magn=  0.0029
     atom  40 (R=0.721)  charge=  4.9195  magn=  0.0021
     atom  41 (R=0.721)  charge=  4.8888  magn=  0.0034
     atom  42 (R=0.721)  charge=  4.8887  magn=  0.0034
     atom  43 (R=0.721)  charge=  7.9144  magn= -0.0379
     atom  44 (R=0.721)  charge=  7.9323  magn= -0.2326
     atom  45 (R=0.721)  charge=  4.7888  magn=  0.0009
     atom  46 (R=0.934)  charge=  1.8874  magn= -0.8408
     atom  47 (R=0.721)  charge=  4.8945  magn=  0.0033
     atom  48 (R=0.721)  charge=  4.8945  magn=  0.0033

     End of self-consistent calculation

 ------ SPIN UP ------------

[...]

 ------ SPIN DOWN ----------

[...]

          k = 0.0380-0.0419 0.0000 ( 25077 PWs)   bands (ev):

[...]

          k =-0.0760-0.0839 0.0000 ( 25128 PWs)   bands (ev):

   -56.5846 -56.5574 -56.4473 -56.4465 -56.2846 -56.2113 -56.2089 -56.1990
   -56.1619 -56.1283 -56.1187 -56.1134 -55.6460 -55.6224 -55.4931 -55.4930
   -32.8381 -32.8004 -32.7929 -32.7708 -32.7574 -32.7530 -32.6674 -32.6571
   -32.6529 -32.6451 -32.5711 -32.5674 -32.5642 -32.5098 -32.4671 -32.4655
   -32.4482 -32.4380 -32.4335 -32.4170 -32.4131 -32.4088 -32.4038 -32.3748
   -32.3733 -32.3661 -32.3549 -32.3515 -32.3249 -32.3249 -32.3245 -32.2824
   -32.2756 -32.2663 -32.2622 -32.2618 -32.0032 -31.8488 -31.8418 -31.8333
   -31.8000 -31.7896 -31.7649 -31.7648 -31.6781 -31.6781 -31.6407 -31.6406
   -16.5842 -16.5580 -16.3644 -16.3477 -16.2864 -16.2434 -16.2256 -16.2213
   -16.1448 -16.1226 -16.0296 -16.0128 -16.0109 -16.0070 -15.9793 -15.9724
   -15.9246 -15.9085 -15.8838 -15.8782 -15.8090 -15.8062 -15.7894 -15.6976
   -15.6794 -15.6567 -15.5492 -15.5448 -15.3104 -14.0738 -14.0713  -3.9686
    -3.8018  -3.7636  -3.5030  -3.4961  -3.3640  -3.3474  -3.2807  -3.2798
    -3.1924  -3.1914  -3.1369  -3.1254  -3.1251  -3.1137  -3.0850  -3.0781
    -3.0585  -3.0414  -3.0140  -3.0062  -3.0040  -2.9709  -2.9345  -2.9327
    -2.9297  -2.9260  -2.8542  -2.8535  -2.7917  -2.5946  -2.5548  -2.5540
    -2.5192  -2.5171  -2.5112  -2.4736  -2.4284  -2.4045  -2.3527  -2.1981
    -2.1320  -2.1245  -2.0667  -1.9933  -1.8776  -1.8185  -1.7933  -1.6963
    -1.6650  -1.6487  -1.5806  -1.5176  -1.5146  -1.4834  -1.4425  -1.4319
    -1.4266  -1.4150  -1.3697  -1.2396  -1.2248  -1.2080  -1.1792  -1.1779
    -1.1430  -1.1069  -0.9983  -0.9855  -0.9769  -0.9257  -0.7973  -0.7882
    -0.7224  -0.7150  -0.4233  -0.4098  -0.2629  -0.1586  -0.0561  -0.0373
    -0.0261   0.0247   0.0794   0.0967   0.1533   0.1733   0.1778   0.3325
     0.3605   0.8798   0.8822   0.9695   0.9783   2.0374   2.3195   2.7058
     3.0152   3.0267   3.0730   3.1202   3.1228   3.1457   3.1679   3.1882

     the Fermi energy is     2.7211 ev

!    total energy              =   -3247.85668516 Ry
     estimated scf accuracy    <       0.00000004 Ry
     smearing contrib. (-TS)   =      -0.00020694 Ry
     internal energy E=F+TS    =   -3247.85647822 Ry

     The total energy is F=E-TS. E is the sum of the following terms:
     one-electron contribution =  -24961.48442704 Ry
     hartree contribution      =   12566.52001296 Ry
     xc contribution           =    -543.02345579 Ry
     ewald contribution        =   10002.04397095 Ry
     electric field correction =       0.00008487 Ry
     one-center paw contrib.   =    -311.91266417 Ry

     total magnetization       =    -2.88 Bohr mag/cell
     absolute magnetization    =     3.04 Bohr mag/cell

     convergence has been achieved in  13 iterations

     negative rho (up, down):  1.178E-02 1.031E-02

     Forces acting on atoms (cartesian axes, Ry/au):

     atom    1 type  1   force =     0.00007722    0.00004381    0.12047535
     atom    2 type  1   force =    -0.00008657    0.00024960   -0.17555721
     atom    3 type  2   force =     0.00005199   -0.00000419   -0.04848805
     atom    4 type  2   force =     0.00002476    0.00004331    0.04439979
     atom    5 type  2   force =    -0.02636646   -0.00049594    0.00209059
     atom    6 type  2   force =     0.02628598   -0.00000921    0.00208527
     atom    7 type  1   force =     0.00000115    0.00041518    0.00152668
     atom    8 type  1   force =    -0.00001018   -0.00996454    0.02481429
     atom    9 type  2   force =    -0.00000151    0.00003111   -0.00071871
     atom   10 type  2   force =     0.00002794   -0.00015579   -0.01454243
     atom   11 type  2   force =    -0.00038281   -0.00001304    0.00002963
     atom   12 type  2   force =     0.00037193   -0.00001279    0.00002742
     atom   13 type  1   force =     0.00000897    0.00010748    0.00092189
     atom   14 type  1   force =     0.00000493    0.00071055   -0.00063495
     atom   15 type  2   force =    -0.00000169    0.00023534    0.00044985
     atom   16 type  2   force =    -0.00000051   -0.00012366   -0.00060419
     atom   17 type  2   force =    -0.00036644   -0.00006827   -0.00054610
     atom   18 type  2   force =     0.00036538   -0.00006975   -0.00054753
     atom   19 type  1   force =    -0.00000063   -0.00057422    0.00015410
     atom   20 type  1   force =    -0.00000038   -0.00018391    0.00020221
     atom   21 type  2   force =     0.00006248    0.00008131    0.10187929
     atom   22 type  2   force =    -0.00000147    0.00012134    0.00035897
     atom   23 type  2   force =    -0.06817183    0.00097072   -0.03174828
     atom   24 type  2   force =     0.06809228    0.00140986   -0.03178950
     atom   25 type  1   force =     0.00007757   -0.00002278    0.13016398
     atom   26 type  1   force =    -0.00008577   -0.00033097   -0.17552586
     atom   27 type  2   force =     0.00005216   -0.00008956   -0.04636756
     atom   28 type  2   force =     0.00002358   -0.00001527    0.04423939
     atom   29 type  2   force =    -0.02626282   -0.00019880    0.00213946
     atom   30 type  2   force =     0.02618865    0.00028609    0.00213139
     atom   31 type  1   force =     0.00000320   -0.00043555    0.00128413
     atom   32 type  1   force =    -0.00001066    0.00969445    0.02477058
     atom   33 type  2   force =    -0.00000142   -0.00008000   -0.00038124
     atom   34 type  2   force =     0.00002374    0.00029069   -0.01399477
     atom   35 type  2   force =    -0.00042006    0.00017199    0.00010764
     atom   36 type  2   force =     0.00040958    0.00017319    0.00010506
     atom   37 type  1   force =     0.00001100   -0.00005383   -0.00108498
     atom   38 type  1   force =     0.00000454   -0.00079422   -0.00069190
     atom   39 type  2   force =    -0.00000372    0.00018131   -0.00062937
     atom   40 type  2   force =    -0.00000178    0.00006823    0.00008664
     atom   41 type  2   force =    -0.00051335    0.00005690   -0.00047518
     atom   42 type  2   force =     0.00051405    0.00005777   -0.00047705
     atom   43 type  1   force =     0.00000546    0.00065220    0.00072011
     atom   44 type  1   force =    -0.00000161   -0.00035935    0.00019436
     atom   45 type  2   force =     0.00006283    0.00008400    0.10191859
     atom   46 type  3   force =     0.00001474    0.00023294    0.00107069
     atom   47 type  2   force =    -0.06817610   -0.00137665   -0.03175128
     atom   48 type  2   force =     0.06810170   -0.00093711   -0.03179119

     Total force =     0.386680     Total SCF correction =     0.000678
  @ DRIVER MODE: Message from server: STATUS
  @ DRIVER MODE: Message from server: GETFORCE
  @ DRIVER MODE: Returning v,forces,stress,ensemble

     Writing output data file ./calc.save/
  @ DRIVER MODE: Message from server: EXIT
  @ DRIVE MODE: Exiting

     General routines

     Parallel routines

   This run was terminated on:   0:23:29  12Feb2022

   JOB DONE.