     Program PWSCF v.6.7GPU starts on 16Feb2022 at 10:58: 5

     R & G space division:  proc/nbgrp/npool/nimage =      16
     Reading input from /storage/coda1/p-amedford6/0/bchen380/C22/N2_C/qe_3984376.sched-torque.pace.gatech.edu/pw.inp
Warning: card &CELL ignored
Warning: card   CELL_DYNAMICS='IPI', ignored
Warning: card / ignored

     Current dimensions of program PWSCF are:
     Max number of different atomic species (ntypx) = 10
     Max number of k-points (npk) =  40000
     Max angular momentum in pseudopotentials (lmaxx) =  3
     Message from routine cell_base_init:
     DEPRECATED: use true lattice parameter, not A to a.u. conversion factor
     file O.UPF: wavefunction(s)  2P renormalized
     file C.UPF: wavefunction(s)  2S 2P renormalized

     IMPORTANT: XC functional enforced from input :
     Exchange-correlation= BEEF-VDW
                           (   1   4  43  14   2   0   0)
     Any further DFT definition will be discarded
     Please, verify this is what you really want

  @ DRIVER MODE: Connecting to
 qe_1064200_3984376.sched-torque.pace.gatech.eduo6upunww_scratch
  using UNIX socket
  @ DRIVER MODE: Message from server: STATUS
  @ DRIVER MODE: Message from server: INIT
  @ DRIVER MODE: Receiving replica           0          -1
  @ DRIVER MODE: Receiving encoded integer          25
  @ DRIVER MODE:  SCF:  T  FORCE:  T  STRESS:  F  VC:  F  ENSEMBLE:  F
  @ DRIVER MODE:  SCF:  T  FORCE:  T  STRESS:  F  VC:  F  ENSEMBLE:  F

     Using Slab Decomposition

     bravais-lattice index     =            0
     lattice parameter (alat)  =       1.8897  a.u.
     unit-cell volume          =    6658.9804 (a.u.)^3
     number of atoms/cell      =           50
     number of atomic types    =            4
     number of electrons       =       392.00
     number of Kohn-Sham states=          206
     kinetic-energy cutoff     =      36.7493  Ry
     charge density cutoff     =     367.4932  Ry
     scf convergence threshold =      7.3E-08
     mixing beta               =       0.0500
     number of iterations used =            8  plain     mixing
     Exchange-correlation= BEEF-VDW
                           (   1   4  43  14   2   0   0)

     celldm(1)=   1.889726  celldm(2)=   0.000000  celldm(3)=   0.000000
     celldm(4)=   0.000000  celldm(5)=   0.000000  celldm(6)=   0.000000

     crystal axes: (cart. coord. in units of alat)
               a(1) = (   6.579727   0.000000   0.000000 )
               a(2) = (  -0.000775   5.961596   0.000000 )
               a(3) = (   0.000000   0.000000  25.155947 )

     reciprocal axes: (cart. coord. in units 2 pi/alat)
               b(1) = (  0.151982  0.000020  0.000000 )
               b(2) = (  0.000000  0.167740  0.000000 )
               b(3) = (  0.000000  0.000000  0.039752 )

     PseudoPot. # 1 for Ti read from file:
     /storage/coda1/p-amedford6/0/shared/rich_project_chbe-medford/medford-share/data/pseudos_module/espresso/esp_pseudos_old/Ti.UPF
     MD5 check sum: 88a00a6731bd790ddea75d31a80cb452
     Pseudo is Ultrasoft + core correction, Zval = 12.0
     Generated by new atomic code, or converted to UPF format
     Using radial grid of  851 points,  6 beta functions with:
                l(1) =   0
                l(2) =   0
                l(3) =   1
                l(4) =   1
                l(5) =   2
                l(6) =   2
     Q(r) pseudized with  6 coefficients,  rinner =    1.000   1.000   1.000
                                                       1.000   1.000

     PseudoPot. # 2 for O  read from file:
     /storage/coda1/p-amedford6/0/shared/rich_project_chbe-medford/medford-share/data/pseudos_module/espresso/esp_pseudos_old/O.UPF
     MD5 check sum: 0234752ac141de4415c5fc33072bef88
     Pseudo is Projector augmented-wave + core cor, Zval =  6.0
     Generated using "atomic" code by A. Dal Corso  v.5.0.99 svn rev. 10869
     Shape of augmentation charge: BESSEL
     Using radial grid of 1095 points,  4 beta functions with:
                l(1) =   0
                l(2) =   0
                l(3) =   1
                l(4) =   1
     Q(r) pseudized with 0 coefficients

     PseudoPot. # 3 for C  read from file:
     /storage/coda1/p-amedford6/0/shared/rich_project_chbe-medford/medford-share/data/pseudos_module/espresso/esp_pseudos_old/C.UPF
     MD5 check sum: 5d2aebdfa2cae82b50a7e79e9516da0f
     Pseudo is Projector augmented-wave + core cor, Zval =  4.0
     Generated using "atomic" code by A. Dal Corso  v.5.1
     Shape of augmentation charge: PSQ
     Using radial grid of 1073 points,  4 beta functions with:
                l(1) =   0
                l(2) =   0
                l(3) =   1
                l(4) =   1
     Q(r) pseudized with 0 coefficients

     PseudoPot. # 4 for N  read from file:
     /storage/coda1/p-amedford6/0/shared/rich_project_chbe-medford/medford-share/data/pseudos_module/espresso/esp_pseudos_old/N.UPF
     MD5 check sum: 16739722b17309cd8fe442a2ace49922
     Pseudo is Ultrasoft + core correction, Zval =  5.0
     Generated using "atomic" code by A. Dal Corso  v.5.1
     Using radial grid of 1085 points,  4 beta functions with:
                l(1) =   0
                l(2) =   0
                l(3) =   1
                l(4) =   1
     Q(r) pseudized with 0 coefficients

     atomic species   valence    mass     pseudopotential
        Ti1           12.00    47.86700     Ti( 1.00)
        O1             6.00    15.99900     O ( 1.00)
        C1             4.00    12.01100     C ( 1.00)
        N1             5.00    14.00700     N ( 1.00)

     Starting magnetic structure
     atomic species   magnetization
        Ti1          0.000
        O1           0.000
        C1           0.000
        N1           0.000

     No symmetry found

   Cartesian axes

     site n.     atom                  positions (alat units)
         1           Ti1 tau(   1) = (   0.0004258   2.9801865   6.0000000  )
         2           Ti1 tau(   2) = (   3.2906075   1.4906267   6.0002472  )
         3           O1  tau(   3) = (   0.0006271   0.0005054   7.9858123  )
         4           O1  tau(   4) = (   3.2906025   0.0005020   7.3038282  )
         5           O1  tau(   5) = (   4.5942328   1.4918067   9.2879030  )
         6           O1  tau(   6) = (   1.9868534   1.4903216   9.2879459  )
         7           Ti1 tau(   7) = (   3.2905683   2.9818392   9.1597947  )
         8           Ti1 tau(   8) = (   0.0009689   1.5052867   9.3302970  )
         9           O1  tau(   9) = (   3.2763271   0.0015669  11.3214517  )
        10           O1  tau(  10) = (   0.0007044   0.0001637  10.5878211  )
        11           O1  tau(  11) = (   1.2623886   1.5095881  12.6454205  )
        12           O1  tau(  12) = (   5.2557420   1.5063077  12.6221316  )
        13           Ti1 tau(  13) = (   0.0707556   2.9890427  12.8487008  )
        14           Ti1 tau(  14) = (   3.3897684   1.4952120  12.4768557  )
        15           O1  tau(  15) = (   6.5605311   0.0077956  14.6121373  )
        16           O1  tau(  16) = (   3.2739376   5.9590762  13.8957961  )
        17           O1  tau(  17) = (   4.5097762   1.4710389  16.0497531  )
        18           O1  tau(  18) = (   2.0403275   1.4687306  16.0543229  )
        19           Ti1 tau(  19) = (   3.2770061   2.9711127  15.7042255  )
        20           Ti1 tau(  20) = (   0.0102077   1.3992453  16.1306624  )
        21           O1  tau(  21) = (   3.2904802   0.0005063   4.7018136  )
        22           O1  tau(  22) = (   6.5634076   5.9379635  17.2320895  )
        23           O1  tau(  23) = (   1.3043587   1.4918075   6.0039043  )
        24           O1  tau(  24) = (   5.2767064   1.4903225   6.0039473  )
        25           Ti1 tau(  25) = (   0.0000382   5.9609847   6.0000000  )
        26           Ti1 tau(  26) = (   3.2902200   4.4714249   6.0002472  )
        27           O1  tau(  27) = (   0.0002396   2.9813036   7.9858123  )
        28           O1  tau(  28) = (   3.2902150   2.9813002   7.3038282  )
        29           O1  tau(  29) = (   4.5938453   4.4726049   9.2879030  )
        30           O1  tau(  30) = (   1.9864658   4.4711199   9.2879459  )
        31           Ti1 tau(  31) = (   3.2909982   0.0016570   9.1583503  )
        32           Ti1 tau(  32) = (   0.0005865   4.4518293   9.3323505  )
        33           O1  tau(  33) = (   3.2745491   2.9828483  11.3189097  )
        34           O1  tau(  34) = (   0.0003571   2.9798178  10.5649370  )
        35           O1  tau(  35) = (   1.2627860   4.4614471  12.6460571  )
        36           O1  tau(  36) = (   5.2558931   4.4603043  12.6235392  )
        37           Ti1 tau(  37) = (   0.0633394   0.0080946  12.7777423  )
        38           Ti1 tau(  38) = (   3.3891395   4.4738801  12.4769460  )
        39           O1  tau(  39) = (   6.5778521   2.9861997  14.7047154  )
        40           O1  tau(  40) = (   3.2699765   2.9777991  13.8981438  )
        41           O1  tau(  41) = (   4.5093265   4.4524628  16.0486724  )
        42           O1  tau(  42) = (   2.0425649   4.4527673  16.0570755  )
        43           Ti1 tau(  43) = (   3.2974208   5.9506419  15.7073155  )
        44           Ti1 tau(  44) = (   0.0059163   4.4336003  16.1496515  )
        45           O1  tau(  45) = (   3.2900926   2.9813045   4.7018136  )
        46           C1  tau(  46) = (   6.5411429   2.9575422  17.5054814  )
        47           O1  tau(  47) = (   1.3039711   4.4726057   6.0039043  )
        48           O1  tau(  48) = (   5.2763189   4.4711207   6.0039473  )
        49           N1  tau(  49) = (   6.3938081   2.8642509  18.7700866  )
        50           N1  tau(  50) = (   6.2560745   2.7767776  19.9043091  )

     number of k points=    10  Fermi-Dirac smearing, width (Ry)=  0.0007
                       cart. coord. in units 2pi/alat
        k(    1) = (   0.0000000   0.0000000   0.0000000), wk =   0.0625000
        k(    2) = (   0.0000000   0.0419351   0.0000000), wk =   0.1250000
        k(    3) = (   0.0000000  -0.0838702   0.0000000), wk =   0.0625000
        k(    4) = (   0.0379955   0.0000049   0.0000000), wk =   0.1250000
        k(    5) = (   0.0379955   0.0419400   0.0000000), wk =   0.1250000
        k(    6) = (   0.0379955  -0.0838652   0.0000000), wk =   0.1250000
        k(    7) = (   0.0379955  -0.0419301   0.0000000), wk =   0.1250000
        k(    8) = (  -0.0759910  -0.0000099   0.0000000), wk =   0.0625000
        k(    9) = (  -0.0759910   0.0419252   0.0000000), wk =   0.1250000
        k(   10) = (  -0.0759910  -0.0838800   0.0000000), wk =   0.0625000

     Check: negative core charge=   -0.000008
     Generating pointlists ...
     new r_m :   0.7423 (alat units)  1.4028 (a.u.) for type    1
     new r_m :   0.7423 (alat units)  1.4028 (a.u.) for type    2
     new r_m :   0.5266 (alat units)  0.9951 (a.u.) for type    3
     new r_m :   0.4727 (alat units)  0.8932 (a.u.) for type    4

     Initial potential from superposition of free atoms

     starting charge  375.99919, renormalised to  392.00000

     negative rho (up, down):  1.206E-02 1.206E-02

[...]
     xc contribution           =    -556.05562138 Ry
     ewald contribution        =    9485.63632600 Ry
     electric field correction =       0.00023717 Ry
     one-center paw contrib.   =    -318.46613806 Ry

[...]

     convergence has been achieved in  51 iterations

[...]

     Forces acting on atoms (cartesian axes, Ry/au):

     atom    1 type  1   force =     0.00009766   -0.00003613    0.13666179
     atom    2 type  1   force =    -0.00011630    0.00026793   -0.16688680
     atom    3 type  2   force =    -0.00015608   -0.00010704   -0.07347160
     atom    4 type  2   force =     0.00001811    0.00005917    0.02789230
     atom    5 type  2   force =    -0.02674694    0.00008475   -0.00353761
     atom    6 type  2   force =     0.02624089    0.00048581   -0.00501024
     atom    7 type  1   force =    -0.00164355    0.00043548    0.02131354
     atom    8 type  1   force =     0.00128208   -0.01824077    0.05654271
     atom    9 type  2   force =     0.00037412   -0.00015066    0.00042967
     atom   10 type  2   force =    -0.00036571    0.00037038   -0.03597706
     atom   11 type  2   force =     0.00121108   -0.00050204   -0.00019037
     atom   12 type  2   force =    -0.00000625   -0.00005407    0.00010267
     atom   13 type  1   force =    -0.00083653   -0.00030358    0.00007452
     atom   14 type  1   force =     0.00108657   -0.00059406    0.00001017
     atom   15 type  2   force =     0.00041168   -0.00010329   -0.00013983
     atom   16 type  2   force =     0.00014341   -0.00031974    0.00023765
     atom   17 type  2   force =    -0.00097296    0.00026712   -0.00023504
     atom   18 type  2   force =     0.00061899    0.00020642   -0.00015423
     atom   19 type  1   force =     0.00030618   -0.00004630    0.00003268
     atom   20 type  1   force =    -0.00065655   -0.00028167    0.00097140
     atom   21 type  2   force =     0.00006576    0.00009332    0.09992099
     atom   22 type  2   force =    -0.00035291    0.00110686   -0.00040272
     atom   23 type  2   force =    -0.07516872    0.00141945   -0.03406142
     atom   24 type  2   force =     0.07506628    0.00185356   -0.03409058
     atom   25 type  1   force =     0.00009229   -0.00010686    0.14609230
     atom   26 type  1   force =    -0.00012125   -0.00038433   -0.16685070
     atom   27 type  2   force =    -0.00018749   -0.00008996   -0.07138817
     atom   28 type  2   force =     0.00000481    0.00001093    0.02794157
     atom   29 type  2   force =    -0.02662112   -0.00064428   -0.00349719
     atom   30 type  2   force =     0.02611657   -0.00009192   -0.00497027
     atom   31 type  1   force =    -0.00164134   -0.00039331    0.02114898
     atom   32 type  1   force =     0.00128220    0.01810936    0.05631418
     atom   33 type  2   force =     0.00053918   -0.00018889    0.00056473
     atom   34 type  2   force =    -0.00028679    0.00079291   -0.02617189
     atom   35 type  2   force =     0.00091180    0.00020687   -0.00023746
     atom   36 type  2   force =    -0.00007486    0.00001618   -0.00001846
     atom   37 type  1   force =    -0.00058857   -0.00040622   -0.00018954
     atom   38 type  1   force =     0.00111145    0.00037158   -0.00003402
     atom   39 type  2   force =     0.00016551   -0.00039227    0.00025929
     atom   40 type  2   force =     0.00029757   -0.00016010   -0.00012942
     atom   41 type  2   force =    -0.00054406   -0.00011662   -0.00013093
     atom   42 type  2   force =     0.00013859    0.00005363   -0.00007749
     atom   43 type  1   force =     0.00001505   -0.00049103   -0.00098021
     atom   44 type  1   force =    -0.00051180    0.00041188    0.00061968
     atom   45 type  2   force =     0.00006510    0.00009278    0.10001655
     atom   46 type  3   force =     0.00040169   -0.00027035    0.00021335
     atom   47 type  2   force =    -0.07517022   -0.00169876   -0.03406192
     atom   48 type  2   force =     0.07507409   -0.00126357   -0.03409331
     atom   49 type  4   force =    -0.00083869    0.00036328   -0.00010568
     atom   50 type  4   force =     0.00047001    0.00035817   -0.00026658

     Total force =     0.409615     Total SCF correction =     0.000551
  @ DRIVER MODE: Message from server: STATUS
  @ DRIVER MODE: Message from server: GETFORCE
  @ DRIVER MODE: Returning v,forces,stress,ensemble

     Writing output data file ./calc.save/
  @ DRIVER MODE: Message from server: STATUS
  @ DRIVER MODE: Message from server: INIT
  @ DRIVER MODE: Receiving replica           0           0
  @ DRIVER MODE: Receiving encoded integer          25
  @ DRIVER MODE:  SCF:  T  FORCE:  T  STRESS:  F  VC:  F  ENSEMBLE:  F
  @ DRIVER MODE:  SCF:  T  FORCE:  T  STRESS:  F  VC:  F  ENSEMBLE:  F
  @ DRIVER MODE: Message from server: STATUS
  @ DRIVER MODE: Message from server: POSDATA
  @ DRIVER MODE: Reading and sharing positions
  @ DRIVER MODE: Received positions
     NEW-OLD atomic charge density approx. for the potential

     Check: negative core charge=   -0.000008

[...]

     Generating pointlists ...

[...]

     Writing output data file ./calc.save/
  @ DRIVER MODE: Message from server: STATUS
  @ DRIVER MODE: Message from server: INIT
  @ DRIVER MODE: Receiving replica           0           0
  @ DRIVER MODE: Receiving encoded integer          25
  @ DRIVER MODE:  SCF:  T  FORCE:  T  STRESS:  F  VC:  F  ENSEMBLE:  F
  @ DRIVER MODE:  SCF:  T  FORCE:  T  STRESS:  F  VC:  F  ENSEMBLE:  F
  @ DRIVER MODE: Message from server: STATUS
  @ DRIVER MODE: Message from server: POSDATA
  @ DRIVER MODE: Reading and sharing positions
  @ DRIVER MODE: Received positions
     NEW-OLD atomic charge density approx. for the potential

     Check: negative core charge=   -0.000008

[...]

     Generating pointlists ...

     Self-consistent Calculation

[...]

     iteration #  2     ecut=    36.75 Ry     beta= 0.05
     Davidson diagonalization with overlap
     c_bands:  1 eigenvalues not converged
     ethr =  2.43E-08,  avg # of iterations =  5.8

[...]

     total energy              =   -3301.30718914 Ry
     estimated scf accuracy    <       0.00000014 Ry

[...]

     iteration # 22     ecut=    36.75 Ry     beta= 0.05
     Davidson diagonalization with overlap
     ethr =  3.57E-11,  avg # of iterations =  5.9

[...]

     Adding external electric field

     Computed dipole along edir(3) :
        Dipole               -0.3536 Ry au,         -0.8986 Debye
        Dipole field         -0.0007 Ry au,

        Potential amp.        0.0618 Ry
        Total length         46.3494 bohr

     Magnetic moment per site  (integrated on atomic sphere of radius R)
     atom   1 (R=0.742)  charge=  8.0730  magn=  0.0000
     atom   2 (R=0.742)  charge=  8.0721  magn=  0.0000
     atom   3 (R=0.742)  charge=  5.0155  magn= -0.0000
     atom   4 (R=0.742)  charge=  5.0853  magn= -0.0000
     atom   5 (R=0.742)  charge=  5.0443  magn= -0.0000
     atom   6 (R=0.742)  charge=  5.0435  magn= -0.0000
     atom   7 (R=0.742)  charge=  8.0627  magn=  0.0000
     atom   8 (R=0.742)  charge=  8.0578  magn=  0.0000
     atom   9 (R=0.742)  charge=  5.0565  magn= -0.0000
     atom  10 (R=0.742)  charge=  5.0117  magn= -0.0000
     atom  11 (R=0.742)  charge=  5.0478  magn= -0.0000
     atom  12 (R=0.742)  charge=  5.0459  magn=  0.0000
     atom  13 (R=0.742)  charge=  8.0711  magn=  0.0000
     atom  14 (R=0.742)  charge=  8.0703  magn=  0.0000
     atom  15 (R=0.742)  charge=  5.0332  magn= -0.0000
     atom  16 (R=0.742)  charge=  5.0608  magn= -0.0000
     atom  17 (R=0.742)  charge=  5.0351  magn= -0.0000
     atom  18 (R=0.742)  charge=  5.0361  magn= -0.0000
     atom  19 (R=0.742)  charge=  8.0918  magn=  0.0000
     atom  20 (R=0.742)  charge=  8.0956  magn=  0.0000
     atom  21 (R=0.742)  charge=  4.9251  magn= -0.0000
     atom  22 (R=0.742)  charge=  5.0204  magn= -0.0000
     atom  23 (R=0.742)  charge=  5.0356  magn= -0.0000
     atom  24 (R=0.742)  charge=  5.0357  magn= -0.0000
     atom  25 (R=0.742)  charge=  8.0737  magn=  0.0000
     atom  26 (R=0.742)  charge=  8.0721  magn=  0.0000
     atom  27 (R=0.742)  charge=  5.0264  magn= -0.0000
     atom  28 (R=0.742)  charge=  5.0852  magn= -0.0000
     atom  29 (R=0.742)  charge=  5.0440  magn= -0.0000
     atom  30 (R=0.742)  charge=  5.0433  magn= -0.0000
     atom  31 (R=0.742)  charge=  8.0622  magn=  0.0000
     atom  32 (R=0.742)  charge=  8.0577  magn=  0.0000
     atom  33 (R=0.742)  charge=  5.0564  magn=  0.0000
     atom  34 (R=0.742)  charge=  5.0185  magn= -0.0000
     atom  35 (R=0.742)  charge=  5.0477  magn= -0.0000
     atom  36 (R=0.742)  charge=  5.0461  magn= -0.0000
     atom  37 (R=0.742)  charge=  8.0709  magn=  0.0000
     atom  38 (R=0.742)  charge=  8.0702  magn=  0.0000
     atom  39 (R=0.742)  charge=  5.0376  magn= -0.0000
     atom  40 (R=0.742)  charge=  5.0624  magn= -0.0000
     atom  41 (R=0.742)  charge=  5.0358  magn= -0.0000
     atom  42 (R=0.742)  charge=  5.0359  magn= -0.0000
     atom  43 (R=0.742)  charge=  8.0921  magn=  0.0000
     atom  44 (R=0.742)  charge=  8.0943  magn=  0.0000
     atom  45 (R=0.742)  charge=  4.9252  magn= -0.0000
     atom  46 (R=0.527)  charge=  1.2862  magn= -0.0000
     atom  47 (R=0.742)  charge=  5.0356  magn= -0.0000
     atom  48 (R=0.742)  charge=  5.0357  magn= -0.0000
     atom  49 (R=0.473)  charge=  1.8216  magn=  0.0000
     atom  50 (R=0.473)  charge=  1.7432  magn= -0.0000

     End of self-consistent calculation

 ------ SPIN UP ------------

[...]

 ------ SPIN DOWN ----------

[...]

          k = 0.0380-0.0419 0.0000 ( 25077 PWs)   bands (ev):

[...]

          k =-0.0760-0.0839 0.0000 ( 25128 PWs)   bands (ev):

   -57.0296 -56.9927 -56.2634 -56.2594 -56.2471 -56.2463 -56.1065 -56.1012
   -56.0164 -56.0118 -55.9830 -55.9219 -55.7748 -55.7748 -55.4328 -55.3745
   -33.2372 -33.2368 -33.2069 -33.1903 -33.1358 -33.1036 -32.5604 -32.5588
   -32.5156 -32.5124 -32.4749 -32.4729 -32.4394 -32.4385 -32.4138 -32.4116
   -32.3984 -32.3959 -32.3791 -32.3353 -32.3152 -32.3062 -32.2698 -32.2611
   -32.2597 -32.2569 -32.2521 -32.2508 -32.2434 -32.2017 -32.1657 -32.1600
   -32.1547 -32.1444 -32.1118 -32.0737 -32.0598 -32.0598 -31.9510 -31.9510
   -31.9144 -31.9144 -31.8317 -31.6856 -31.6021 -31.5473 -31.5450 -31.4627
   -19.8671 -16.6165 -16.6155 -16.5694 -16.5488 -16.4330 -16.4327 -16.2647
   -16.2604 -16.2313 -16.1485 -16.0523 -16.0470 -15.9876 -15.9393 -15.8728
   -15.8403 -15.8361 -15.8164 -15.7961 -15.7923 -15.7604 -15.7552 -15.7329
   -15.7228 -15.5102 -15.4529 -15.4272 -15.3137 -15.2318 -14.3536 -14.3508
   -13.1336  -4.0652  -4.0041  -3.8243  -3.7211  -3.7207  -3.5803  -3.5776
    -3.4909  -3.4168  -3.4002  -3.3925  -3.3714  -3.3709  -3.2694  -3.2648
    -3.1331  -3.1300  -3.0876  -3.0838  -3.0481  -3.0362  -3.0106  -2.9563
    -2.9270  -2.9247  -2.9028  -2.8978  -2.8751  -2.8432  -2.8133  -2.8035
    -2.7530  -2.6930  -2.6551  -2.5836  -2.5630  -2.5580  -2.5248  -2.4593
    -2.3779  -2.3461  -2.2782  -2.2040  -2.1938  -2.1128  -2.0117  -1.9431
    -1.9279  -1.8921  -1.8634  -1.7298  -1.7149  -1.7013  -1.6767  -1.6270
    -1.5998  -1.5566  -1.4939  -1.3796  -1.3563  -1.3321  -1.3158  -1.2474
    -1.2376  -1.2347  -1.1908  -1.0988  -1.0697  -1.0469  -1.0313  -0.9691
    -0.9594  -0.9045  -0.8626  -0.7304  -0.7098  -0.6455  -0.6245  -0.6136
    -0.5847  -0.1911  -0.1191  -0.0785  -0.0441   0.0452   0.0837   0.1099
     0.1372   0.1986   0.2606   0.3392   0.3731   0.4720   0.6278   0.6344
     0.6706   0.6803   1.6744   2.1141   2.7817   2.8114   2.8650   2.9016
     3.1874   3.2167   3.2420   3.2764   3.2898   3.3287

     the Fermi energy is     2.1946 ev

!    total energy              =   -3301.30718914 Ry
     estimated scf accuracy    <       0.00000003 Ry
     smearing contrib. (-TS)   =      -0.00002675 Ry
     internal energy E=F+TS    =   -3301.30716239 Ry

     The total energy is F=E-TS. E is the sum of the following terms:
     one-electron contribution =  -24007.22165616 Ry
     hartree contribution      =   12094.79096689 Ry
     xc contribution           =    -556.05835278 Ry
     ewald contribution        =    9485.64771847 Ry
     electric field correction =       0.00023589 Ry
     one-center paw contrib.   =    -318.46607470 Ry

     total magnetization       =    -0.00 Bohr mag/cell
     absolute magnetization    =     0.00 Bohr mag/cell

     convergence has been achieved in  22 iterations

     negative rho (up, down):  1.096E-02 1.096E-02

     Forces acting on atoms (cartesian axes, Ry/au):

     atom    1 type  1   force =     0.00009697   -0.00003722    0.13665220
     atom    2 type  1   force =    -0.00011595    0.00027503   -0.16690738
     atom    3 type  2   force =    -0.00015661   -0.00010901   -0.07347888
     atom    4 type  2   force =     0.00002182    0.00005807    0.02792597
     atom    5 type  2   force =    -0.02674560    0.00005982   -0.00353920
     atom    6 type  2   force =     0.02626382    0.00046440   -0.00499982
     atom    7 type  1   force =    -0.00165901    0.00043197    0.02148008
     atom    8 type  1   force =     0.00130322   -0.01824217    0.05655680
     atom    9 type  2   force =     0.00048597   -0.00013390   -0.00009468
     atom   10 type  2   force =    -0.00044379    0.00036343   -0.03602256
     atom   11 type  2   force =     0.00013106   -0.00028396   -0.00009418
     atom   12 type  2   force =     0.00064760   -0.00005755    0.00012660
     atom   13 type  1   force =     0.00066252   -0.00039479    0.00037180
     atom   14 type  1   force =    -0.00009956    0.00027654    0.00015442
     atom   15 type  2   force =     0.00019308   -0.00014421   -0.00000833
     atom   16 type  2   force =     0.00031587   -0.00031754   -0.00045366
     atom   17 type  2   force =    -0.00005721    0.00009810   -0.00007765
     atom   18 type  2   force =    -0.00002577    0.00003781   -0.00007091
     atom   19 type  1   force =    -0.00019549   -0.00041709   -0.00031702
     atom   20 type  1   force =    -0.00024244    0.00082746   -0.00017120
     atom   21 type  2   force =     0.00006720    0.00009233    0.09992877
     atom   22 type  2   force =    -0.00043751    0.00015107    0.00066215
     atom   23 type  2   force =    -0.07516908    0.00141943   -0.03406241
     atom   24 type  2   force =     0.07506775    0.00185426   -0.03409294
     atom   25 type  1   force =     0.00009165   -0.00010849    0.14608440
     atom   26 type  1   force =    -0.00012046   -0.00039169   -0.16687126
     atom   27 type  2   force =    -0.00018821   -0.00009125   -0.07139334
     atom   28 type  2   force =     0.00000923    0.00000993    0.02794685
     atom   29 type  2   force =    -0.02662006   -0.00062978   -0.00349624
     atom   30 type  2   force =     0.02614030   -0.00008194   -0.00495703
     atom   31 type  1   force =    -0.00165771   -0.00039228    0.02111596
     atom   32 type  1   force =     0.00130175    0.01810724    0.05632185
     atom   33 type  2   force =     0.00062112   -0.00016181    0.00020203
     atom   34 type  2   force =    -0.00034226    0.00078406   -0.02614997
     atom   35 type  2   force =    -0.00001928   -0.00004978   -0.00013468
     atom   36 type  2   force =     0.00060545   -0.00001832    0.00003710
     atom   37 type  1   force =     0.00072181   -0.00027139   -0.00003135
     atom   38 type  1   force =    -0.00006541   -0.00051339    0.00009748
     atom   39 type  2   force =     0.00001367   -0.00006029    0.00000117
     atom   40 type  2   force =     0.00042485   -0.00011132    0.00002004
     atom   41 type  2   force =     0.00023361    0.00004312    0.00005313
     atom   42 type  2   force =    -0.00034307    0.00018324    0.00001466
     atom   43 type  1   force =    -0.00048349   -0.00008181   -0.00009658
     atom   44 type  1   force =    -0.00014462   -0.00030650    0.00000142
     atom   45 type  2   force =     0.00006691    0.00009221    0.10001632
     atom   46 type  3   force =     0.00014703    0.00013237   -0.00037230
     atom   47 type  2   force =    -0.07517050   -0.00169942   -0.03406431
     atom   48 type  2   force =     0.07507564   -0.00126437   -0.03409530
     atom   49 type  4   force =    -0.00030180    0.00028716   -0.00067344
     atom   50 type  4   force =     0.00009498    0.00032220    0.00095539

     Total force =     0.409638     Total SCF correction =     0.000708
  @ DRIVER MODE: Message from server: STATUS
  @ DRIVER MODE: Message from server: GETFORCE
  @ DRIVER MODE: Returning v,forces,stress,ensemble

     Writing output data file ./calc.save/
  @ DRIVER MODE: Message from server: EXIT
  @ DRIVE MODE: Exiting

     General routines

     Parallel routines

   This run was terminated on:  11:38:56  16Feb2022

   JOB DONE.