     Program PWSCF v.6.7GPU starts on 17Feb2022 at 16:10:24

     R & G space division:  proc/nbgrp/npool/nimage =      16
     Reading input from /storage/coda1/p-amedford6/0/bchen380/B22/O2_B/qe_3989872.sched-torque.pace.gatech.edu/pw.inp
Warning: card &CELL ignored
Warning: card   CELL_DYNAMICS='IPI', ignored
Warning: card / ignored

     Current dimensions of program PWSCF are:
     Max number of different atomic species (ntypx) = 10
     Max number of k-points (npk) =  40000
     Max angular momentum in pseudopotentials (lmaxx) =  3
     Message from routine cell_base_init:
     DEPRECATED: use true lattice parameter, not A to a.u. conversion factor
     file O.UPF: wavefunction(s)  2P renormalized

     IMPORTANT: XC functional enforced from input :
     Exchange-correlation= BEEF-VDW
                           (   1   4  43  14   2   0   0)
     Any further DFT definition will be discarded
     Please, verify this is what you really want

  @ DRIVER MODE: Connecting to
 qe_1064200_3989872.sched-torque.pace.gatech.eduxxlmgr7g_scratch
  using UNIX socket
  @ DRIVER MODE: Message from server: STATUS
  @ DRIVER MODE: Message from server: INIT
  @ DRIVER MODE: Receiving replica           0          -1
  @ DRIVER MODE: Receiving encoded integer          25
  @ DRIVER MODE:  SCF:  T  FORCE:  T  STRESS:  F  VC:  F  ENSEMBLE:  F
  @ DRIVER MODE:  SCF:  T  FORCE:  T  STRESS:  F  VC:  F  ENSEMBLE:  F

     Using Slab Decomposition

     bravais-lattice index     =            0
     lattice parameter (alat)  =       1.8897  a.u.
     unit-cell volume          =    6658.9804 (a.u.)^3
     number of atoms/cell      =           50
     number of atomic types    =            3
     number of electrons       =       393.00
     number of Kohn-Sham states=          206
     kinetic-energy cutoff     =      36.7493  Ry
     charge density cutoff     =     367.4932  Ry
     scf convergence threshold =      7.3E-08
     mixing beta               =       0.0500
     number of iterations used =            8  plain     mixing
     Exchange-correlation= BEEF-VDW
                           (   1   4  43  14   2   0   0)

     celldm(1)=   1.889726  celldm(2)=   0.000000  celldm(3)=   0.000000
     celldm(4)=   0.000000  celldm(5)=   0.000000  celldm(6)=   0.000000

     crystal axes: (cart. coord. in units of alat)
               a(1) = (   6.579727   0.000000   0.000000 )
               a(2) = (  -0.000775   5.961596   0.000000 )
               a(3) = (   0.000000   0.000000  25.155947 )

     reciprocal axes: (cart. coord. in units 2 pi/alat)
               b(1) = (  0.151982  0.000020  0.000000 )
               b(2) = (  0.000000  0.167740  0.000000 )
               b(3) = (  0.000000  0.000000  0.039752 )

     PseudoPot. # 1 for Ti read from file:
     /storage/coda1/p-amedford6/0/shared/rich_project_chbe-medford/medford-share/data/pseudos_module/espresso/esp_pseudos_old/Ti.UPF
     MD5 check sum: 88a00a6731bd790ddea75d31a80cb452
     Pseudo is Ultrasoft + core correction, Zval = 12.0
     Generated by new atomic code, or converted to UPF format
     Using radial grid of  851 points,  6 beta functions with:
                l(1) =   0
                l(2) =   0
                l(3) =   1
                l(4) =   1
                l(5) =   2
                l(6) =   2
     Q(r) pseudized with  6 coefficients,  rinner =    1.000   1.000   1.000
                                                       1.000   1.000

     PseudoPot. # 2 for O  read from file:
     /storage/coda1/p-amedford6/0/shared/rich_project_chbe-medford/medford-share/data/pseudos_module/espresso/esp_pseudos_old/O.UPF
     MD5 check sum: 0234752ac141de4415c5fc33072bef88
     Pseudo is Projector augmented-wave + core cor, Zval =  6.0
     Generated using "atomic" code by A. Dal Corso  v.5.0.99 svn rev. 10869
     Shape of augmentation charge: BESSEL
     Using radial grid of 1095 points,  4 beta functions with:
                l(1) =   0
                l(2) =   0
                l(3) =   1
                l(4) =   1
     Q(r) pseudized with 0 coefficients

     PseudoPot. # 3 for B  read from file:
     /storage/coda1/p-amedford6/0/shared/rich_project_chbe-medford/medford-share/data/pseudos_module/espresso/esp_pseudos_old/B.UPF
     MD5 check sum: cc6de2960df11db49a60e589f9ebb39b
     Pseudo is Ultrasoft + core correction, Zval =  3.0
     Generated by new atomic code, or converted to UPF format
     Using radial grid of  781 points,  4 beta functions with:
                l(1) =   0
                l(2) =   0
                l(3) =   1
                l(4) =   1
     Q(r) pseudized with  8 coefficients,  rinner =    1.100   1.100   1.100

     atomic species   valence    mass     pseudopotential
        Ti1           12.00    47.86700     Ti( 1.00)
        O1             6.00    15.99900     O ( 1.00)
        B1             3.00    10.81000     B ( 1.00)

     Starting magnetic structure
     atomic species   magnetization
        Ti1          0.000
        O1           0.000
        B1           0.000

     No symmetry found

   Cartesian axes

     site n.     atom                  positions (alat units)
         1           Ti1 tau(   1) = (   0.0004258   2.9801865   6.0000000  )
         2           Ti1 tau(   2) = (   3.2906075   1.4906267   6.0002472  )
         3           O1  tau(   3) = (   0.0006271   0.0005054   7.9858123  )
         4           O1  tau(   4) = (   3.2906025   0.0005020   7.3038282  )
         5           O1  tau(   5) = (   4.5942328   1.4918067   9.2879030  )
         6           O1  tau(   6) = (   1.9868534   1.4903216   9.2879459  )
         7           Ti1 tau(   7) = (   3.2905683   2.9818392   9.1597947  )
         8           Ti1 tau(   8) = (   0.0009689   1.5052867   9.3302970  )
         9           O1  tau(   9) = (   3.2906494   0.0005058  11.3627918  )
        10           O1  tau(  10) = (   0.0007044   0.0001637  10.5878211  )
        11           O1  tau(  11) = (   1.2927521   1.4919162  12.6335704  )
        12           O1  tau(  12) = (   5.2884679   1.4922943  12.6332174  )
        13           Ti1 tau(  13) = (   0.0001939   2.9827895  12.7786105  )
        14           Ti1 tau(  14) = (   3.2904799   1.4915565  12.5023003  )
        15           O1  tau(  15) = (   6.5781662   0.0014340  14.6469143  )
        16           O1  tau(  16) = (   3.2923642   0.0021704  13.9645411  )
        17           O1  tau(  17) = (   4.5490263   1.5048565  16.0874665  )
        18           O1  tau(  18) = (   2.0306791   1.5042372  16.0879458  )
        19           Ti1 tau(  19) = (   3.2939611   2.9840499  15.7390525  )
        20           Ti1 tau(  20) = (   0.0126909   1.3916261  15.9325701  )
        21           O1  tau(  21) = (   3.2904802   0.0005063   4.7018136  )
        22           O1  tau(  22) = (   0.0025882   0.0099961  17.1643403  )
        23           O1  tau(  23) = (   1.3043587   1.4918075   6.0039043  )
        24           O1  tau(  24) = (   5.2767064   1.4903225   6.0039473  )
        25           Ti1 tau(  25) = (   0.0000382   5.9609847   6.0000000  )
        26           Ti1 tau(  26) = (   3.2902200   4.4714249   6.0002472  )
        27           O1  tau(  27) = (   0.0002396   2.9813036   7.9858123  )
        28           O1  tau(  28) = (   3.2902150   2.9813002   7.3038282  )
        29           O1  tau(  29) = (   4.5938453   4.4726049   9.2879030  )
        30           O1  tau(  30) = (   1.9864658   4.4711199   9.2879459  )
        31           Ti1 tau(  31) = (   3.2909982   0.0016570   9.1583503  )
        32           Ti1 tau(  32) = (   0.0005865   4.4518293   9.3323505  )
        33           O1  tau(  33) = (   3.2901705   2.9820941  11.3621854  )
        34           O1  tau(  34) = (   0.0003571   2.9798178  10.5649370  )
        35           O1  tau(  35) = (   1.2917000   4.4718951  12.6341540  )
        36           O1  tau(  36) = (   5.2887370   4.4712063  12.6338596  )
        37           Ti1 tau(  37) = (   0.0005279   0.0001836  12.5353317  )
        38           Ti1 tau(  38) = (   3.2901074   4.4699311  12.5029251  )
        39           O1  tau(  39) = (   0.0024985   2.9791231  14.7029010  )
        40           O1  tau(  40) = (   3.2912529   2.9834249  13.9468609  )
        41           O1  tau(  41) = (   4.5459453   4.4630398  16.0921333  )
        42           O1  tau(  42) = (   2.0319295   4.4631064  16.0929880  )
        43           Ti1 tau(  43) = (   3.3001824   0.0048331  15.7577049  )
        44           Ti1 tau(  44) = (   0.0129128   4.5641482  16.0234949  )
        45           O1  tau(  45) = (   3.2900926   2.9813045   4.7018136  )
        46           B1  tau(  46) = (   6.5268181   2.9856975  17.8106734  )
        47           O1  tau(  47) = (   1.3039711   4.4726057   6.0039043  )
        48           O1  tau(  48) = (   5.2763189   4.4711207   6.0039473  )
        49           O1  tau(  49) = (   6.3857867   2.8066752  19.0259722  )
        50           O1  tau(  50) = (   6.1997502   2.5773090  20.3081507  )

     number of k points=    10  Fermi-Dirac smearing, width (Ry)=  0.0007
                       cart. coord. in units 2pi/alat
        k(    1) = (   0.0000000   0.0000000   0.0000000), wk =   0.0625000
        k(    2) = (   0.0000000   0.0419351   0.0000000), wk =   0.1250000
        k(    3) = (   0.0000000  -0.0838702   0.0000000), wk =   0.0625000
        k(    4) = (   0.0379955   0.0000049   0.0000000), wk =   0.1250000
        k(    5) = (   0.0379955   0.0419400   0.0000000), wk =   0.1250000
        k(    6) = (   0.0379955  -0.0838652   0.0000000), wk =   0.1250000
        k(    7) = (   0.0379955  -0.0419301   0.0000000), wk =   0.1250000
        k(    8) = (  -0.0759910  -0.0000099   0.0000000), wk =   0.0625000
        k(    9) = (  -0.0759910   0.0419252   0.0000000), wk =   0.1250000
        k(   10) = (  -0.0759910  -0.0838800   0.0000000), wk =   0.0625000

     Check: negative core charge=   -0.000008
     Generating pointlists ...
     new r_m :   0.7393 (alat units)  1.3970 (a.u.) for type    1
     new r_m :   0.5100 (alat units)  0.9639 (a.u.) for type    2
     new r_m :   0.5100 (alat units)  0.9639 (a.u.) for type    3

     Initial potential from superposition of free atoms

     starting charge  376.99896, renormalised to  393.00000

     negative rho (up, down):  1.176E-02 1.176E-02

     %%%%%%%%%%%%%%%%%%%%%%%%%%%%%%%%%%%%%%%%%%%%%%%%%%%%%%%%%%%%%%%%%%%%%%%%
     %                                                                      %
     % You are using vdW-DF, which was implemented by the Thonhauser group. %
     % Please cite the following two papers that made this development      %
     % possible and the two reviews that describe the various versions:     %
     %                                                                      %
     %   T. Thonhauser et al., PRL 115, 136402 (2015).                      %
     %   T. Thonhauser et al., PRB 76, 125112 (2007).                       %
     %   K. Berland et al., Rep. Prog. Phys. 78, 066501 (2015).             %
     %   D.C. Langreth et al., J. Phys.: Condens. Matter 21, 084203 (2009). %
[...]

[...]

     Forces acting on atoms (cartesian axes, Ry/au):

     atom    1 type  1   force =     0.00003371    0.00006736    0.11079621
     atom    2 type  1   force =    -0.00009126   -0.00008644   -0.17857059
     atom    3 type  2   force =     0.00009533    0.00005723   -0.03032461
     atom    4 type  2   force =     0.00002794    0.00005541    0.04915734
     atom    5 type  2   force =    -0.01986126   -0.00128576    0.00601461
     atom    6 type  2   force =     0.01977758   -0.00087087    0.00601402
     atom    7 type  1   force =    -0.00002531    0.00037364   -0.00528936
     atom    8 type  1   force =    -0.00000470    0.00942744   -0.01066972
     atom    9 type  2   force =     0.00003928    0.00000548    0.00002542
     atom   10 type  2   force =     0.00007733    0.00020357    0.00646621
     atom   11 type  2   force =     0.00117545    0.00030982   -0.00038094
     atom   12 type  2   force =    -0.00112464    0.00025175   -0.00046997
     atom   13 type  1   force =     0.00004744    0.00028267   -0.00081193
     atom   14 type  1   force =    -0.00009500   -0.00002151   -0.00034684
     atom   15 type  2   force =    -0.00011101   -0.00005138   -0.00053910
     atom   16 type  2   force =     0.00005840   -0.00002386   -0.00013905
     atom   17 type  2   force =    -0.00152639   -0.00004067   -0.00024925
     atom   18 type  2   force =     0.00119309   -0.00003772   -0.00023255
     atom   19 type  1   force =    -0.00010296    0.00047034   -0.00017389
     atom   20 type  1   force =     0.00056856   -0.00118993   -0.00229516
     atom   21 type  2   force =     0.00006037    0.00009199    0.10254070
     atom   22 type  2   force =    -0.00017042    0.00032120    0.00305830
     atom   23 type  2   force =    -0.06740037    0.00067047   -0.03046200
     atom   24 type  2   force =     0.06731668    0.00115363   -0.03050313
     atom   25 type  1   force =     0.00011089   -0.00000719    0.12062609
     atom   26 type  1   force =    -0.00009121   -0.00000127   -0.17853413
     atom   27 type  2   force =     0.00000816   -0.00004559   -0.02832488
     atom   28 type  2   force =     0.00001701   -0.00000742    0.05007471
     atom   29 type  2   force =    -0.01971085    0.00067646    0.00607391
     atom   30 type  2   force =     0.01964427    0.00124097    0.00606926
     atom   31 type  1   force =     0.00001062   -0.00043763   -0.00586070
     atom   32 type  1   force =    -0.00000889   -0.00962124   -0.01029639
     atom   33 type  2   force =     0.00002900    0.00006563   -0.00022897
     atom   34 type  2   force =    -0.00000291    0.00030497    0.00071997
     atom   35 type  2   force =     0.00118381   -0.00034215   -0.00046566
     atom   36 type  2   force =    -0.00113764   -0.00029677   -0.00056088
     atom   37 type  1   force =     0.00003957    0.00004342    0.00229121
     atom   38 type  1   force =    -0.00009808    0.00018631   -0.00032451
     atom   39 type  2   force =    -0.00014896    0.00043264    0.00217627
     atom   40 type  2   force =     0.00000654   -0.00004221   -0.00189122
     atom   41 type  2   force =    -0.00090333   -0.00019547    0.00043329
     atom   42 type  2   force =     0.00055499   -0.00025384    0.00055450
     atom   43 type  1   force =     0.00048264   -0.00086190   -0.00002926
     atom   44 type  1   force =     0.00067546    0.00092434   -0.00015061
     atom   45 type  2   force =     0.00005925    0.00007886    0.10260200
     atom   46 type  3   force =     0.00044894    0.00039868   -0.00018997
     atom   47 type  2   force =    -0.06737761   -0.00109311   -0.03043260
     atom   48 type  2   force =     0.06729966   -0.00070612   -0.03047257
     atom   49 type  2   force =    -0.00174048   -0.00051601    0.00388023
     atom   50 type  2   force =     0.00069131   -0.00005821   -0.00035378

     Total force =     0.377384     Total SCF correction =     0.000376
  @ DRIVER MODE: Message from server: STATUS
  @ DRIVER MODE: Message from server: GETFORCE
  @ DRIVER MODE: Returning v,forces,stress,ensemble

     Writing output data file ./calc.save/
  @ DRIVER MODE: Message from server: STATUS
  @ DRIVER MODE: Message from server: INIT
  @ DRIVER MODE: Receiving replica           0           0
  @ DRIVER MODE: Receiving encoded integer          25
  @ DRIVER MODE:  SCF:  T  FORCE:  T  STRESS:  F  VC:  F  ENSEMBLE:  F
  @ DRIVER MODE:  SCF:  T  FORCE:  T  STRESS:  F  VC:  F  ENSEMBLE:  F
  @ DRIVER MODE: Message from server: STATUS
  @ DRIVER MODE: Message from server: POSDATA
  @ DRIVER MODE: Reading and sharing positions
  @ DRIVER MODE: Received positions
     NEW-OLD atomic charge density approx. for the potential

     Check: negative core charge=   -0.000008

[...]

     Generating pointlists ...

[...]

     Writing output data file ./calc.save/
  @ DRIVER MODE: Message from server: STATUS
  @ DRIVER MODE: Message from server: INIT
  @ DRIVER MODE: Receiving replica           0           0
  @ DRIVER MODE: Receiving encoded integer          25
  @ DRIVER MODE:  SCF:  T  FORCE:  T  STRESS:  F  VC:  F  ENSEMBLE:  F
  @ DRIVER MODE:  SCF:  T  FORCE:  T  STRESS:  F  VC:  F  ENSEMBLE:  F
  @ DRIVER MODE: Message from server: STATUS
  @ DRIVER MODE: Message from server: POSDATA
  @ DRIVER MODE: Reading and sharing positions
  @ DRIVER MODE: Received positions
     NEW-OLD atomic charge density approx. for the potential

     Check: negative core charge=   -0.000008

[...]

     Generating pointlists ...

     Self-consistent Calculation

     iteration #  1     ecut=    36.75 Ry     beta= 0.05
     Davidson diagonalization with overlap
     c_bands:  3 eigenvalues not converged
     c_bands:  4 eigenvalues not converged
     c_bands:  2 eigenvalues not converged
     c_bands:  1 eigenvalues not converged
     c_bands:  3 eigenvalues not converged
     c_bands:  4 eigenvalues not converged
     c_bands:  4 eigenvalues not converged
     c_bands:  1 eigenvalues not converged
     ethr =  1.94E-11,  avg # of iterations = 21.1

[...]

     total energy              =   -3332.83610126 Ry
     estimated scf accuracy    <       0.00000007 Ry

[...]

     iteration #110     ecut=    36.75 Ry     beta= 0.05
     Davidson diagonalization with overlap
     ethr =  1.89E-11,  avg # of iterations =  6.8

[...]

     Adding external electric field

     Computed dipole along edir(3) :
        Dipole               -0.4873 Ry au,         -1.2386 Debye
        Dipole field         -0.0009 Ry au,

        Potential amp.        0.0852 Ry
        Total length         46.3494 bohr

     Magnetic moment per site  (integrated on atomic sphere of radius R)
     atom   1 (R=0.739)  charge=  8.0619  magn=  0.0003
     atom   2 (R=0.739)  charge=  8.0482  magn=  0.0000
     atom   3 (R=0.510)  charge=  3.0816  magn= -0.0001
     atom   4 (R=0.510)  charge=  3.1132  magn= -0.0001
     atom   5 (R=0.510)  charge=  3.0951  magn= -0.0002
     atom   6 (R=0.510)  charge=  3.0949  magn= -0.0002
     atom   7 (R=0.739)  charge=  8.0436  magn=  0.0030
     atom   8 (R=0.739)  charge=  8.0345  magn=  0.0016
     atom   9 (R=0.510)  charge=  3.1052  magn= -0.0000
     atom  10 (R=0.510)  charge=  3.1009  magn= -0.0001
     atom  11 (R=0.510)  charge=  3.0938  magn= -0.0000
     atom  12 (R=0.510)  charge=  3.0944  magn= -0.0000
     atom  13 (R=0.739)  charge=  8.0412  magn=  0.0001
     atom  14 (R=0.739)  charge=  8.0495  magn= -0.0002
     atom  15 (R=0.510)  charge=  3.0902  magn= -0.0000
     atom  16 (R=0.510)  charge=  3.1021  magn= -0.0000
     atom  17 (R=0.510)  charge=  3.0866  magn= -0.0000
     atom  18 (R=0.510)  charge=  3.0871  magn= -0.0000
     atom  19 (R=0.739)  charge=  8.0727  magn=  0.0006
     atom  20 (R=0.739)  charge=  8.0605  magn=  0.0004
     atom  21 (R=0.510)  charge=  3.0438  magn= -0.0000
     atom  22 (R=0.510)  charge=  3.0803  magn=  0.0000
     atom  23 (R=0.510)  charge=  3.0912  magn= -0.0000
     atom  24 (R=0.510)  charge=  3.0914  magn= -0.0000
     atom  25 (R=0.739)  charge=  8.0611  magn=  0.0003
     atom  26 (R=0.739)  charge=  8.0482  magn=  0.0000
     atom  27 (R=0.510)  charge=  3.0853  magn= -0.0001
     atom  28 (R=0.510)  charge=  3.1131  magn= -0.0001
     atom  29 (R=0.510)  charge=  3.0950  magn= -0.0002
     atom  30 (R=0.510)  charge=  3.0948  magn= -0.0002
     atom  31 (R=0.739)  charge=  8.0440  magn=  0.0029
     atom  32 (R=0.739)  charge=  8.0344  magn=  0.0016
     atom  33 (R=0.510)  charge=  3.1046  magn= -0.0000
     atom  34 (R=0.510)  charge=  3.0878  magn= -0.0001
     atom  35 (R=0.510)  charge=  3.0944  magn= -0.0000
     atom  36 (R=0.510)  charge=  3.0952  magn= -0.0000
     atom  37 (R=0.739)  charge=  8.0415  magn=  0.0002
     atom  38 (R=0.739)  charge=  8.0493  magn= -0.0002
     atom  39 (R=0.510)  charge=  3.0912  magn= -0.0000
     atom  40 (R=0.510)  charge=  3.1045  magn= -0.0000
     atom  41 (R=0.510)  charge=  3.0861  magn= -0.0000
     atom  42 (R=0.510)  charge=  3.0864  magn= -0.0000
     atom  43 (R=0.739)  charge=  8.0722  magn=  0.0008
     atom  44 (R=0.739)  charge=  8.0631  magn=  0.0004
     atom  45 (R=0.510)  charge=  3.0438  magn= -0.0000
     atom  46 (R=0.510)  charge=  0.5284  magn=  0.0000
     atom  47 (R=0.510)  charge=  3.0912  magn=  0.0000
     atom  48 (R=0.510)  charge=  3.0914  magn= -0.0000
     atom  49 (R=0.510)  charge=  3.1226  magn= -0.0000
     atom  50 (R=0.510)  charge=  3.0110  magn= -0.0001

     End of self-consistent calculation

 ------ SPIN UP ------------

[...]

 ------ SPIN DOWN ----------

[...]

          k = 0.0380-0.0419 0.0000 ( 25077 PWs)   bands (ev):

[...]

          k =-0.0760-0.0839 0.0000 ( 25128 PWs)   bands (ev):

   -56.5752 -56.5713 -56.5679 -56.5616 -56.5600 -56.5044 -56.4538 -56.4293
   -56.3823 -56.3772 -56.3590 -56.3508 -56.3431 -56.2737 -55.5977 -55.5975
   -32.9267 -32.9233 -32.8849 -32.8467 -32.8247 -32.8220 -32.8102 -32.7971
   -32.7941 -32.7595 -32.7494 -32.7449 -32.7381 -32.7361 -32.7179 -32.6981
   -32.6755 -32.6652 -32.6493 -32.6404 -32.6396 -32.6385 -32.6306 -32.6187
   -32.6125 -32.6053 -32.6039 -32.5943 -32.5841 -32.5598 -32.5543 -32.5501
   -32.5452 -32.5277 -32.5263 -32.5051 -32.5023 -32.4940 -32.4846 -32.4632
   -32.4489 -32.4146 -31.8659 -31.8656 -31.7841 -31.7839 -31.7479 -31.7476
   -22.1239 -16.8634 -16.8364 -16.6952 -16.6042 -16.5940 -16.5098 -16.4850
   -16.4133 -16.4004 -16.3890 -16.3555 -16.3427 -16.3127 -16.2946 -16.2405
   -16.2052 -16.1926 -16.1688 -16.1639 -16.1128 -16.1121 -16.0719 -16.0544
   -15.9961 -15.9942 -15.9738 -15.8802 -15.8604 -15.8552 -14.8382 -14.1772
   -14.1747  -5.8451  -4.1783  -4.1315  -4.0731  -4.0411  -3.8289  -3.7329
    -3.7221  -3.6559  -3.5758  -3.5509  -3.5156  -3.4805  -3.4369  -3.4283
    -3.4150  -3.4004  -3.3916  -3.3904  -3.3479  -3.3339  -3.3055  -3.2848
    -3.2612  -3.2044  -3.1971  -3.1901  -3.1709  -3.1458  -3.1252  -3.1158
    -3.1141  -3.1023  -2.8611  -2.8532  -2.7962  -2.7346  -2.7062  -2.6946
    -2.6748  -2.6339  -2.6128  -2.5648  -2.5104  -2.4552  -2.3358  -2.3122
    -2.3067  -2.2691  -2.2060  -2.0773  -2.0268  -1.9998  -1.9577  -1.8928
    -1.8767  -1.8302  -1.7376  -1.7065  -1.6811  -1.5961  -1.5410  -1.5269
    -1.5223  -1.5057  -1.4455  -1.3650  -1.3295  -1.3039  -1.2544  -1.1777
    -1.1602  -1.1536  -1.1460  -1.1365  -1.0340  -0.9883  -0.8119  -0.7029
    -0.6085  -0.5738  -0.5416  -0.4560  -0.3973  -0.3019  -0.2885  -0.1533
    -0.1459  -0.0885  -0.0471  -0.0224   0.0032   0.0462   0.7684   0.7707
     0.8725   0.8812   1.7836   1.9131   2.7013   2.7722   2.7791   2.8572
     3.0190   3.0424   3.0513   3.0599   3.0988   3.1994

     the Fermi energy is     2.6406 ev

!    total energy              =   -3332.83610146 Ry
     estimated scf accuracy    <       0.00000007 Ry
     smearing contrib. (-TS)   =      -0.00048443 Ry
     internal energy E=F+TS    =   -3332.83561703 Ry

     The total energy is F=E-TS. E is the sum of the following terms:
     one-electron contribution =  -23754.39798870 Ry
     hartree contribution      =   11966.55201587 Ry
     xc contribution           =    -558.42289494 Ry
     ewald contribution        =    9345.49018483 Ry
     electric field correction =       0.00044814 Ry
     one-center paw contrib.   =    -332.05738224 Ry

     total magnetization       =     0.02 Bohr mag/cell
     absolute magnetization    =     0.04 Bohr mag/cell

     convergence has been achieved in 110 iterations

     negative rho (up, down):  1.079E-02 1.081E-02

     Forces acting on atoms (cartesian axes, Ry/au):

     atom    1 type  1   force =    -0.00003254    0.00007059    0.11098022
     atom    2 type  1   force =    -0.00010111   -0.00005952   -0.17848506
     atom    3 type  2   force =     0.00015976    0.00004870   -0.03063355
     atom    4 type  2   force =     0.00002998    0.00006016    0.04889155
     atom    5 type  2   force =    -0.01998780   -0.00122382    0.00570421
     atom    6 type  2   force =     0.01988929   -0.00087157    0.00572109
     atom    7 type  1   force =    -0.00002051    0.00034629   -0.00551316
     atom    8 type  1   force =    -0.00000590    0.00836076   -0.01004413
     atom    9 type  2   force =    -0.00004748   -0.00005022    0.00007568
     atom   10 type  2   force =     0.00028912    0.00045150    0.00697176
     atom   11 type  2   force =    -0.00023415    0.00033707    0.00006537
     atom   12 type  2   force =     0.00022947    0.00033205    0.00000174
     atom   13 type  1   force =    -0.00005372    0.00000608   -0.00051665
     atom   14 type  1   force =    -0.00008155   -0.00016259    0.00056823
     atom   15 type  2   force =    -0.00001071    0.00011624    0.00079644
     atom   16 type  2   force =     0.00015820    0.00000537    0.00038971
     atom   17 type  2   force =     0.00013480   -0.00013021    0.00000445
     atom   18 type  2   force =    -0.00020861   -0.00011707   -0.00001973
     atom   19 type  1   force =    -0.00002184   -0.00013575   -0.00031853
     atom   20 type  1   force =     0.00018300   -0.00076152   -0.00014519
     atom   21 type  2   force =     0.00005938    0.00009483    0.10251455
     atom   22 type  2   force =     0.00003103    0.00009609   -0.00047157
     atom   23 type  2   force =    -0.06746414    0.00063186   -0.03049294
     atom   24 type  2   force =     0.06737915    0.00119893   -0.03053592
     atom   25 type  1   force =     0.00016406   -0.00000577    0.12078015
     atom   26 type  1   force =    -0.00010320   -0.00002801   -0.17844596
     atom   27 type  2   force =    -0.00006379   -0.00002048   -0.02864155
     atom   28 type  2   force =     0.00000813   -0.00000885    0.04971640
     atom   29 type  2   force =    -0.01985408    0.00062109    0.00581445
     atom   30 type  2   force =     0.01977006    0.00124428    0.00582904
     atom   31 type  1   force =     0.00004919   -0.00039764   -0.00606592
     atom   32 type  1   force =    -0.00001304   -0.00855888   -0.00954135
     atom   33 type  2   force =    -0.00001496    0.00002203    0.00002057
     atom   34 type  2   force =    -0.00008658    0.00019525    0.00122504
     atom   35 type  2   force =    -0.00024431   -0.00037165    0.00007672
     atom   36 type  2   force =     0.00023218   -0.00036744    0.00000702
     atom   37 type  1   force =     0.00000555    0.00012208   -0.00000357
     atom   38 type  1   force =    -0.00008872    0.00009330    0.00048835
     atom   39 type  2   force =    -0.00002053   -0.00020649    0.00113852
     atom   40 type  2   force =     0.00003289    0.00001838    0.00013127
     atom   41 type  2   force =     0.00005521    0.00023951   -0.00004265
     atom   42 type  2   force =    -0.00002818    0.00018433   -0.00003849
     atom   43 type  1   force =     0.00021369    0.00021062   -0.00002690
     atom   44 type  1   force =     0.00004506    0.00091146    0.00044145
     atom   45 type  2   force =     0.00005531    0.00007673    0.10257394
     atom   46 type  3   force =    -0.00024871   -0.00005241   -0.00087780
     atom   47 type  2   force =    -0.06743180   -0.00105738   -0.03045288
     atom   48 type  2   force =     0.06735241   -0.00075291   -0.03049485
     atom   49 type  2   force =     0.00027683   -0.00024512   -0.00005920
     atom   50 type  2   force =    -0.00033579   -0.00051028    0.00093965

     Total force =     0.377270     Total SCF correction =     0.000519
  @ DRIVER MODE: Message from server: STATUS
  @ DRIVER MODE: Message from server: GETFORCE
  @ DRIVER MODE: Returning v,forces,stress,ensemble

     Writing output data file ./calc.save/
  @ DRIVER MODE: Message from server: EXIT
  @ DRIVE MODE: Exiting

     General routines

     Parallel routines

   This run was terminated on:  23:44:49  17Feb2022

   JOB DONE.