     Program PWSCF v.6.7GPU starts on 12Feb2022 at 18:30:55

     R & G space division:  proc/nbgrp/npool/nimage =      16
     Reading input from /storage/coda1/p-amedford6/0/bchen380/C22/qe_3966627.sched-torque.pace.gatech.edu/pw.inp
Warning: card &CELL ignored
Warning: card   CELL_DYNAMICS='IPI', ignored
Warning: card / ignored

     Current dimensions of program PWSCF are:
     Max number of different atomic species (ntypx) = 10
     Max number of k-points (npk) =  40000
     Max angular momentum in pseudopotentials (lmaxx) =  3
     Message from routine cell_base_init:
     DEPRECATED: use true lattice parameter, not A to a.u. conversion factor
     file O.UPF: wavefunction(s)  2P renormalized
     file C.UPF: wavefunction(s)  2S 2P renormalized

     IMPORTANT: XC functional enforced from input :
     Exchange-correlation= BEEF-VDW
                           (   1   4  43  14   2   0   0)
     Any further DFT definition will be discarded
     Please, verify this is what you really want

  @ DRIVER MODE: Connecting to
 qe_1064200_3966627.sched-torque.pace.gatech.eduyeagkq14_scratch
  using UNIX socket
  @ DRIVER MODE: Message from server: STATUS
  @ DRIVER MODE: Message from server: INIT
  @ DRIVER MODE: Receiving replica           0          -1
  @ DRIVER MODE: Receiving encoded integer          25
  @ DRIVER MODE:  SCF:  T  FORCE:  T  STRESS:  F  VC:  F  ENSEMBLE:  F
  @ DRIVER MODE:  SCF:  T  FORCE:  T  STRESS:  F  VC:  F  ENSEMBLE:  F

     Using Slab Decomposition

     bravais-lattice index     =            0
     lattice parameter (alat)  =       1.8897  a.u.
     unit-cell volume          =    6658.9804 (a.u.)^3
     number of atoms/cell      =           48
     number of atomic types    =            3
     number of electrons       =       382.00
     number of Kohn-Sham states=          201
     kinetic-energy cutoff     =      36.7493  Ry
     charge density cutoff     =     367.4932  Ry
     scf convergence threshold =      7.3E-08
     mixing beta               =       0.0500
     number of iterations used =            8  plain     mixing
     Exchange-correlation= BEEF-VDW
                           (   1   4  43  14   2   0   0)

     celldm(1)=   1.889726  celldm(2)=   0.000000  celldm(3)=   0.000000
     celldm(4)=   0.000000  celldm(5)=   0.000000  celldm(6)=   0.000000

     crystal axes: (cart. coord. in units of alat)
               a(1) = (   6.579727   0.000000   0.000000 )
               a(2) = (  -0.000775   5.961596   0.000000 )
               a(3) = (   0.000000   0.000000  25.155947 )

     reciprocal axes: (cart. coord. in units 2 pi/alat)
               b(1) = (  0.151982  0.000020  0.000000 )
               b(2) = (  0.000000  0.167740  0.000000 )
               b(3) = (  0.000000  0.000000  0.039752 )

     PseudoPot. # 1 for Ti read from file:
     /storage/coda1/p-amedford6/0/shared/rich_project_chbe-medford/medford-share/data/pseudos_module/espresso/esp_pseudos_old/Ti.UPF
     MD5 check sum: 88a00a6731bd790ddea75d31a80cb452
     Pseudo is Ultrasoft + core correction, Zval = 12.0
     Generated by new atomic code, or converted to UPF format
     Using radial grid of  851 points,  6 beta functions with:
                l(1) =   0
                l(2) =   0
                l(3) =   1
                l(4) =   1
                l(5) =   2
                l(6) =   2
     Q(r) pseudized with  6 coefficients,  rinner =    1.000   1.000   1.000
                                                       1.000   1.000

     PseudoPot. # 2 for O  read from file:
     /storage/coda1/p-amedford6/0/shared/rich_project_chbe-medford/medford-share/data/pseudos_module/espresso/esp_pseudos_old/O.UPF
     MD5 check sum: 0234752ac141de4415c5fc33072bef88
     Pseudo is Projector augmented-wave + core cor, Zval =  6.0
     Generated using "atomic" code by A. Dal Corso  v.5.0.99 svn rev. 10869
     Shape of augmentation charge: BESSEL
     Using radial grid of 1095 points,  4 beta functions with:
                l(1) =   0
                l(2) =   0
                l(3) =   1
                l(4) =   1
     Q(r) pseudized with 0 coefficients

     PseudoPot. # 3 for C  read from file:
     /storage/coda1/p-amedford6/0/shared/rich_project_chbe-medford/medford-share/data/pseudos_module/espresso/esp_pseudos_old/C.UPF
     MD5 check sum: 5d2aebdfa2cae82b50a7e79e9516da0f
     Pseudo is Projector augmented-wave + core cor, Zval =  4.0
     Generated using "atomic" code by A. Dal Corso  v.5.1
     Shape of augmentation charge: PSQ
     Using radial grid of 1073 points,  4 beta functions with:
                l(1) =   0
                l(2) =   0
                l(3) =   1
                l(4) =   1
     Q(r) pseudized with 0 coefficients

     atomic species   valence    mass     pseudopotential
        Ti1           12.00    47.86700     Ti( 1.00)
        O1             6.00    15.99900     O ( 1.00)
        C1             4.00    12.01100     C ( 1.00)

     Starting magnetic structure
     atomic species   magnetization
        Ti1          0.000
        O1           0.000
        C1           0.000

     No symmetry found

   Cartesian axes

     site n.     atom                  positions (alat units)
         1           Ti1 tau(   1) = (   0.0004258   2.9801865   6.0000000  )
         2           Ti1 tau(   2) = (   3.2906075   1.4906267   6.0002472  )
         3           O1  tau(   3) = (   0.0006271   0.0005054   7.9858123  )
         4           O1  tau(   4) = (   3.2906025   0.0005020   7.3038282  )
         5           O1  tau(   5) = (   4.5942328   1.4918067   9.2879030  )
         6           O1  tau(   6) = (   1.9868534   1.4903216   9.2879459  )
         7           Ti1 tau(   7) = (   3.2905683   2.9818392   9.1597947  )
         8           Ti1 tau(   8) = (   0.0009689   1.5052867   9.3302970  )
         9           O1  tau(   9) = (   3.2918610   0.0002967  11.3389496  )
        10           O1  tau(  10) = (   0.0007044   0.0001637  10.5878211  )
        11           O1  tau(  11) = (   1.3092974   1.5018082  12.6332746  )
        12           O1  tau(  12) = (   5.2768401   1.5004084  12.6356091  )
        13           Ti1 tau(  13) = (   6.5772371   2.9784640  12.8475192  )
        14           Ti1 tau(  14) = (   3.2854093   1.4922340  12.4917689  )
        15           O1  tau(  15) = (   0.0059242   5.9433999  14.5922398  )
        16           O1  tau(  16) = (   3.2892956   0.0016744  13.9398285  )
        17           O1  tau(  17) = (   4.5268952   1.4960749  16.0946382  )
        18           O1  tau(  18) = (   2.0563034   1.4980130  16.0935717  )
        19           Ti1 tau(  19) = (   3.2910100   2.9833125  15.7306424  )
        20           Ti1 tau(  20) = (   6.5726522   1.4964315  16.1405760  )
        21           O1  tau(  21) = (   3.2904802   0.0005063   4.7018136  )
        22           O1  tau(  22) = (   0.0027655   5.9510521  17.2415874  )
        23           O1  tau(  23) = (   1.3043587   1.4918075   6.0039043  )
        24           O1  tau(  24) = (   5.2767064   1.4903225   6.0039473  )
        25           Ti1 tau(  25) = (   0.0000382   5.9609847   6.0000000  )
        26           Ti1 tau(  26) = (   3.2902200   4.4714249   6.0002472  )
        27           O1  tau(  27) = (   0.0002396   2.9813036   7.9858123  )
        28           O1  tau(  28) = (   3.2902150   2.9813002   7.3038282  )
        29           O1  tau(  29) = (   4.5938453   4.4726049   9.2879030  )
        30           O1  tau(  30) = (   1.9864658   4.4711199   9.2879459  )
        31           Ti1 tau(  31) = (   3.2909982   0.0016570   9.1583503  )
        32           Ti1 tau(  32) = (   0.0005865   4.4518293   9.3323505  )
        33           O1  tau(  33) = (   3.2919723   2.9809090  11.3355310  )
        34           O1  tau(  34) = (   0.0003571   2.9798178  10.5649370  )
        35           O1  tau(  35) = (   1.3089788   4.4566395  12.6340242  )
        36           O1  tau(  36) = (   5.2761848   4.4575845  12.6364610  )
        37           Ti1 tau(  37) = (   6.5767340   5.9603691  12.7627119  )
        38           Ti1 tau(  38) = (   3.2851390   4.4682287  12.4917640  )
        39           O1  tau(  39) = (   0.0013370   2.9610405  14.6811970  )
        40           O1  tau(  40) = (   3.2914100   2.9826330  13.9310107  )
        41           O1  tau(  41) = (   4.5272274   4.4704557  16.0948956  )
        42           O1  tau(  42) = (   2.0558573   4.4684086  16.0938808  )
        43           Ti1 tau(  43) = (   3.2815352   0.0044995  15.7431443  )
        44           Ti1 tau(  44) = (   6.5701182   4.5707120  16.1332276  )
        45           O1  tau(  45) = (   3.2900926   2.9813045   4.7018136  )
        46           C1  tau(  46) = (   0.0035505   2.9607554  17.4525481  )
        47           O1  tau(  47) = (   1.3039711   4.4726057   6.0039043  )
        48           O1  tau(  48) = (   5.2763189   4.4711207   6.0039473  )

     number of k points=    10  Fermi-Dirac smearing, width (Ry)=  0.0007
                       cart. coord. in units 2pi/alat
        k(    1) = (   0.0000000   0.0000000   0.0000000), wk =   0.0625000
        k(    2) = (   0.0000000   0.0419351   0.0000000), wk =   0.1250000
        k(    3) = (   0.0000000  -0.0838702   0.0000000), wk =   0.0625000
        k(    4) = (   0.0379955   0.0000049   0.0000000), wk =   0.1250000
        k(    5) = (   0.0379955   0.0419400   0.0000000), wk =   0.1250000
        k(    6) = (   0.0379955  -0.0838652   0.0000000), wk =   0.1250000
        k(    7) = (   0.0379955  -0.0419301   0.0000000), wk =   0.1250000
        k(    8) = (  -0.0759910  -0.0000099   0.0000000), wk =   0.0625000
        k(    9) = (  -0.0759910   0.0419252   0.0000000), wk =   0.1250000
        k(   10) = (  -0.0759910  -0.0838800   0.0000000), wk =   0.0625000

     Check: negative core charge=   -0.000008
     Generating pointlists ...
     new r_m :   0.7302 (alat units)  1.3800 (a.u.) for type    1
     new r_m :   0.7302 (alat units)  1.3800 (a.u.) for type    2
     new r_m :   0.8110 (alat units)  1.5326 (a.u.) for type    3

     Initial potential from superposition of free atoms

     starting charge  365.99921, renormalised to  382.00000

     negative rho (up, down):  1.202E-02 1.202E-02

     %%%%%%%%%%%%%%%%%%%%%%%%%%%%%%%%%%%%%%%%%%%%%%%%%%%%%%%%%%%%%%%%%%%%%%%%
     %                                                                      %
     % You are using vdW-DF, which was implemented by the Thonhauser group. %
     % Please cite the following two papers that made this development      %
     % possible and the two reviews that describe the various versions:     %
     %                                                                      %
     %   T. Thonhauser et al., PRL 115, 136402 (2015).                      %
     %   T. Thonhauser et al., PRB 76, 125112 (2007).                       %
     %   K. Berland et al., Rep. Prog. Phys. 78, 066501 (2015).             %
     %   D.C. Langreth et al., J. Phys.: Condens. Matter 21, 084203 (2009). %
     %                                                                      %
[...]
     one-center paw contrib.   =    -318.48769637 Ry

[...]

     convergence has been achieved in 123 iterations

[...]

     Forces acting on atoms (cartesian axes, Ry/au):

     atom    1 type  1   force =     0.00006375   -0.00004088    0.13720681
     atom    2 type  1   force =    -0.00009421    0.00026321   -0.16720755
     atom    3 type  2   force =     0.00004768   -0.00009512   -0.07474589
     atom    4 type  2   force =     0.00001270    0.00004915    0.02907455
     atom    5 type  2   force =    -0.02809657   -0.00005274   -0.00385283
     atom    6 type  2   force =     0.02804729    0.00045136   -0.00373955
     atom    7 type  1   force =     0.00010080    0.00045019    0.02097204
     atom    8 type  1   force =    -0.00010452   -0.01680239    0.05880498
     atom    9 type  2   force =     0.00008196   -0.00001045    0.00028653
     atom   10 type  2   force =     0.00014996   -0.00021899   -0.03994050
     atom   11 type  2   force =     0.00067244   -0.00070384   -0.00101056
     atom   12 type  2   force =    -0.00024409   -0.00066556   -0.00082634
     atom   13 type  1   force =    -0.00024498    0.00006213    0.00519671
     atom   14 type  1   force =    -0.00059271   -0.00148157   -0.00008040
     atom   15 type  2   force =    -0.00009641   -0.00127233   -0.00053038
     atom   16 type  2   force =     0.00020785    0.00005578   -0.00028338
     atom   17 type  2   force =     0.00425884    0.00253930    0.00114197
     atom   18 type  2   force =    -0.00413194    0.00236124    0.00110759
     atom   19 type  1   force =    -0.00069418    0.00226836   -0.00019827
     atom   20 type  1   force =     0.00029710   -0.00134626   -0.00490014
     atom   21 type  2   force =     0.00004985    0.00008770    0.10013409
     atom   22 type  2   force =    -0.00017521    0.00432165    0.00056192
     atom   23 type  2   force =    -0.07506495    0.00142071   -0.03409046
     atom   24 type  2   force =     0.07496647    0.00185350   -0.03413182
     atom   25 type  1   force =     0.00005901   -0.00010827    0.14664335
     atom   26 type  1   force =    -0.00009637   -0.00036457   -0.16718468
     atom   27 type  2   force =     0.00005409   -0.00018441   -0.07273364
     atom   28 type  2   force =     0.00001458   -0.00001080    0.02915538
     atom   29 type  2   force =    -0.02804199   -0.00062153   -0.00378580
     atom   30 type  2   force =     0.02799761   -0.00016516   -0.00367425
     atom   31 type  1   force =     0.00010134   -0.00041286    0.02129362
     atom   32 type  1   force =    -0.00010782    0.01664963    0.05882502
     atom   33 type  2   force =     0.00005164   -0.00015017   -0.00088190
     atom   34 type  2   force =     0.00002501    0.00022770   -0.03147352
     atom   35 type  2   force =     0.00078597   -0.00028964   -0.00123046
     atom   36 type  2   force =    -0.00033815   -0.00031607   -0.00102621
     atom   37 type  1   force =    -0.00028537   -0.00058669    0.00352176
     atom   38 type  1   force =    -0.00061266    0.00162379    0.00010198
     atom   39 type  2   force =    -0.00025958   -0.00031555   -0.00714371
     atom   40 type  2   force =     0.00018573   -0.00053534   -0.00041312
     atom   41 type  2   force =     0.00270362   -0.00185419    0.00068172
     atom   42 type  2   force =    -0.00262515   -0.00169615    0.00065291
     atom   43 type  1   force =    -0.00049365   -0.00244264    0.00010241
     atom   44 type  1   force =     0.00056723   -0.00589615   -0.00092161
     atom   45 type  2   force =     0.00005052    0.00009147    0.10022524
     atom   46 type  3   force =     0.00094013    0.00684137    0.00853574
     atom   47 type  2   force =    -0.07506820   -0.00170690   -0.03408890
     atom   48 type  2   force =     0.07497555   -0.00127100   -0.03413042

     Total force =     0.413051     Total SCF correction =     0.000259
  @ DRIVER MODE: Message from server: STATUS
  @ DRIVER MODE: Message from server: GETFORCE
  @ DRIVER MODE: Returning v,forces,stress,ensemble

     Writing output data file ./calc.save/
  @ DRIVER MODE: Message from server: STATUS
  @ DRIVER MODE: Message from server: INIT
  @ DRIVER MODE: Receiving replica           0           0
  @ DRIVER MODE: Receiving encoded integer          25
  @ DRIVER MODE:  SCF:  T  FORCE:  T  STRESS:  F  VC:  F  ENSEMBLE:  F
  @ DRIVER MODE:  SCF:  T  FORCE:  T  STRESS:  F  VC:  F  ENSEMBLE:  F
  @ DRIVER MODE: Message from server: STATUS
  @ DRIVER MODE: Message from server: POSDATA
  @ DRIVER MODE: Reading and sharing positions
  @ DRIVER MODE: Received positions
     NEW-OLD atomic charge density approx. for the potential

     Check: negative core charge=   -0.000008

[...]

     Generating pointlists ...

[...]

     Writing output data file ./calc.save/
  @ DRIVER MODE: Message from server: STATUS
  @ DRIVER MODE: Message from server: INIT
  @ DRIVER MODE: Receiving replica           0           0
  @ DRIVER MODE: Receiving encoded integer          25
  @ DRIVER MODE:  SCF:  T  FORCE:  T  STRESS:  F  VC:  F  ENSEMBLE:  F
  @ DRIVER MODE:  SCF:  T  FORCE:  T  STRESS:  F  VC:  F  ENSEMBLE:  F
  @ DRIVER MODE: Message from server: STATUS
  @ DRIVER MODE: Message from server: POSDATA
  @ DRIVER MODE: Reading and sharing positions
  @ DRIVER MODE: Received positions
     NEW-OLD atomic charge density approx. for the potential

     Check: negative core charge=   -0.000008

[...]

     Generating pointlists ...

     Self-consistent Calculation

     iteration #  1     ecut=    36.75 Ry     beta= 0.05
     Davidson diagonalization with overlap
     c_bands:  2 eigenvalues not converged
     c_bands:  1 eigenvalues not converged
     c_bands:  1 eigenvalues not converged
     c_bands:  1 eigenvalues not converged
     c_bands:  1 eigenvalues not converged
     c_bands:  1 eigenvalues not converged
     c_bands:  1 eigenvalues not converged
     c_bands:  1 eigenvalues not converged
     c_bands:  1 eigenvalues not converged
     c_bands:  1 eigenvalues not converged
     c_bands:  1 eigenvalues not converged
     c_bands:  1 eigenvalues not converged
     c_bands:  1 eigenvalues not converged
     c_bands:  1 eigenvalues not converged
     c_bands:  1 eigenvalues not converged
     c_bands:  1 eigenvalues not converged
     ethr =  4.55E-11,  avg # of iterations = 19.9

[...]

     total energy              =   -3260.32966303 Ry
     estimated scf accuracy    <       0.00000027 Ry

[...]

     iteration # 22     ecut=    36.75 Ry     beta= 0.05
     Davidson diagonalization with overlap
     ethr =  6.18E-11,  avg # of iterations =  5.0

[...]

     Adding external electric field

     Computed dipole along edir(3) :
        Dipole               -0.1434 Ry au,         -0.3646 Debye
        Dipole field         -0.0003 Ry au,

        Potential amp.        0.0251 Ry
        Total length         46.3494 bohr

     Magnetic moment per site  (integrated on atomic sphere of radius R)
     atom   1 (R=0.730)  charge=  7.9741  magn= -0.0000
     atom   2 (R=0.730)  charge=  7.9711  magn= -0.0000
     atom   3 (R=0.730)  charge=  4.9351  magn=  0.0000
     atom   4 (R=0.730)  charge=  5.0021  magn=  0.0000
     atom   5 (R=0.730)  charge=  4.9617  magn= -0.0000
     atom   6 (R=0.730)  charge=  4.9625  magn=  0.0000
     atom   7 (R=0.730)  charge=  7.9627  magn= -0.0000
     atom   8 (R=0.730)  charge=  7.9591  magn= -0.0000
     atom   9 (R=0.730)  charge=  4.9737  magn=  0.0000
     atom  10 (R=0.730)  charge=  4.9308  magn= -0.0001
     atom  11 (R=0.730)  charge=  4.9647  magn=  0.0001
     atom  12 (R=0.730)  charge=  4.9664  magn= -0.0006
     atom  13 (R=0.730)  charge=  7.9764  magn=  0.0007
     atom  14 (R=0.730)  charge=  7.9715  magn=  0.0000
     atom  15 (R=0.730)  charge=  4.9539  magn= -0.0019
     atom  16 (R=0.730)  charge=  4.9702  magn= -0.0001
     atom  17 (R=0.730)  charge=  4.9512  magn= -0.0025
     atom  18 (R=0.730)  charge=  4.9503  magn=  0.0018
     atom  19 (R=0.730)  charge=  7.9915  magn= -0.0001
     atom  20 (R=0.730)  charge=  8.0117  magn=  0.0065
     atom  21 (R=0.730)  charge=  4.8473  magn=  0.0000
     atom  22 (R=0.730)  charge=  4.9468  magn=  0.0017
     atom  23 (R=0.730)  charge=  4.9549  magn= -0.0000
     atom  24 (R=0.730)  charge=  4.9548  magn=  0.0000
     atom  25 (R=0.730)  charge=  7.9748  magn= -0.0000
     atom  26 (R=0.730)  charge=  7.9711  magn= -0.0000
     atom  27 (R=0.730)  charge=  4.9457  magn= -0.0000
     atom  28 (R=0.730)  charge=  5.0021  magn= -0.0000
     atom  29 (R=0.730)  charge=  4.9615  magn= -0.0000
     atom  30 (R=0.730)  charge=  4.9623  magn=  0.0000
     atom  31 (R=0.730)  charge=  7.9622  magn=  0.0000
     atom  32 (R=0.730)  charge=  7.9596  magn= -0.0000
     atom  33 (R=0.730)  charge=  4.9736  magn= -0.0000
     atom  34 (R=0.730)  charge=  4.9361  magn=  0.0002
     atom  35 (R=0.730)  charge=  4.9649  magn=  0.0002
     atom  36 (R=0.730)  charge=  4.9666  magn= -0.0008
     atom  37 (R=0.730)  charge=  7.9748  magn=  0.0002
     atom  38 (R=0.730)  charge=  7.9715  magn=  0.0001
     atom  39 (R=0.730)  charge=  4.9546  magn=  0.0007
     atom  40 (R=0.730)  charge=  4.9771  magn= -0.0002
     atom  41 (R=0.730)  charge=  4.9519  magn= -0.0024
     atom  42 (R=0.730)  charge=  4.9491  magn=  0.0003
     atom  43 (R=0.730)  charge=  7.9890  magn=  0.0003
     atom  44 (R=0.730)  charge=  8.0111  magn=  0.0031
     atom  45 (R=0.730)  charge=  4.8474  magn=  0.0000
     atom  46 (R=0.811)  charge=  2.7228  magn= -0.0077
     atom  47 (R=0.730)  charge=  4.9549  magn= -0.0000
     atom  48 (R=0.730)  charge=  4.9548  magn=  0.0000

     End of self-consistent calculation

 ------ SPIN UP ------------

[...]

 ------ SPIN DOWN ----------

[...]

          k = 0.0380-0.0419 0.0000 ( 25077 PWs)   bands (ev):

[...]

          k =-0.0760-0.0839 0.0000 ( 25128 PWs)   bands (ev):

   -57.1274 -57.0903 -56.3735 -56.3682 -56.3128 -56.3120 -56.2552 -56.1830
   -56.1772 -56.1712 -55.9446 -55.8971 -55.8800 -55.8800 -55.2762 -55.2527
   -33.3354 -33.3326 -33.3052 -33.2857 -33.2350 -33.2025 -32.6368 -32.6348
   -32.6224 -32.6182 -32.5827 -32.5749 -32.5586 -32.5299 -32.5189 -32.5176
   -32.4935 -32.4858 -32.4558 -32.4543 -32.4496 -32.4487 -32.4214 -32.4052
   -32.4035 -32.3394 -32.3371 -32.3363 -32.3323 -32.3278 -32.2213 -32.1783
   -32.1643 -32.1643 -32.1247 -32.1197 -32.0956 -32.0571 -32.0567 -32.0566
   -32.0198 -32.0198 -31.6750 -31.5663 -31.5392 -31.4659 -31.3697 -31.3248
   -16.7155 -16.7150 -16.6663 -16.6469 -16.5186 -16.5044 -16.3685 -16.3544
   -16.3182 -16.2362 -16.1569 -16.1540 -16.0268 -15.9944 -15.9897 -15.9750
   -15.9604 -15.9286 -15.9272 -15.9132 -15.8756 -15.8720 -15.7974 -15.7958
   -15.5478 -15.4797 -15.4709 -15.3530 -15.1553 -14.4585 -14.4556  -6.1590
    -3.8081  -3.7996  -3.6753  -3.6613  -3.5767  -3.5023  -3.4718  -3.4716
    -3.4708  -3.4677  -3.3719  -3.3657  -3.2008  -3.1999  -3.1515  -3.1443
    -3.1194  -3.0891  -3.0754  -3.0290  -2.9986  -2.9975  -2.9827  -2.9697
    -2.9478  -2.9475  -2.9334  -2.9115  -2.8652  -2.8460  -2.6758  -2.6588
    -2.6556  -2.6261  -2.6086  -2.5346  -2.3945  -2.3798  -2.3042  -2.2998
    -2.2604  -2.1440  -2.0088  -1.9954  -1.9774  -1.9586  -1.8255  -1.8027
    -1.7823  -1.7533  -1.7022  -1.6891  -1.6695  -1.5831  -1.4702  -1.4519
    -1.4204  -1.4053  -1.3642  -1.3577  -1.3419  -1.3224  -1.2286  -1.2089
    -1.1685  -1.1564  -1.1379  -1.0629  -1.0237  -0.9681  -0.8158  -0.8079
    -0.7427  -0.7221  -0.7043  -0.6524  -0.2855  -0.2121  -0.1705  -0.1115
    -0.0405  -0.0132   0.0252   0.0669   0.1193   0.1970   0.2053   0.3255
     0.4136   0.5224   0.5304   0.5683   0.5780   1.5378   1.9071   2.6838
     2.7137   2.7448   2.7718   2.8055   3.0881   3.0923   3.1205   3.1586
     3.2260

     the Fermi energy is     2.0196 ev

!    total energy              =   -3260.32966323 Ry
     estimated scf accuracy    <       0.00000003 Ry
     smearing contrib. (-TS)   =      -0.00000004 Ry
     internal energy E=F+TS    =   -3260.32966320 Ry

     The total energy is F=E-TS. E is the sum of the following terms:
     one-electron contribution =  -24801.29124687 Ry
     hartree contribution      =   12486.16490599 Ry
     xc contribution           =    -544.76394346 Ry
     ewald contribution        =    9918.04954550 Ry
     electric field correction =       0.00003882 Ry
     one-center paw contrib.   =    -318.48896317 Ry

     total magnetization       =     0.00 Bohr mag/cell
     absolute magnetization    =     1.33 Bohr mag/cell

     convergence has been achieved in  22 iterations

     negative rho (up, down):  1.096E-02 1.099E-02

     Forces acting on atoms (cartesian axes, Ry/au):

     atom    1 type  1   force =     0.00008307   -0.00004624    0.13737752
     atom    2 type  1   force =    -0.00004103    0.00033156   -0.16732055
     atom    3 type  2   force =     0.00022505   -0.00011739   -0.07514911
     atom    4 type  2   force =     0.00002794    0.00004212    0.02952886
     atom    5 type  2   force =    -0.02840784   -0.00018723   -0.00411474
     atom    6 type  2   force =     0.02858840    0.00038253   -0.00313336
     atom    7 type  1   force =     0.00142907    0.00040048    0.02157552
     atom    8 type  1   force =    -0.00107461   -0.01750448    0.05989499
     atom    9 type  2   force =    -0.00003109   -0.00008938   -0.00053604
     atom   10 type  2   force =     0.00070587   -0.00009225   -0.03887268
     atom   11 type  2   force =    -0.00072405    0.00020688   -0.00017319
     atom   12 type  2   force =    -0.00008942    0.00005897   -0.00013428
     atom   13 type  1   force =     0.00010945   -0.00035506   -0.00071263
     atom   14 type  1   force =     0.00004083    0.00013492    0.00024593
     atom   15 type  2   force =    -0.00005674   -0.00013259    0.00024204
     atom   16 type  2   force =    -0.00038597   -0.00026054   -0.00062373
     atom   17 type  2   force =     0.00012386    0.00000398   -0.00035292
     atom   18 type  2   force =    -0.00027817   -0.00004573   -0.00012268
     atom   19 type  1   force =     0.00034053   -0.00032291    0.00038884
     atom   20 type  1   force =    -0.00030583   -0.00034861   -0.00067113
     atom   21 type  2   force =     0.00006957    0.00008201    0.10016282
     atom   22 type  2   force =     0.00005898   -0.00034556    0.00001584
     atom   23 type  2   force =    -0.07498400    0.00141796   -0.03411996
     atom   24 type  2   force =     0.07495115    0.00184660   -0.03416663
     atom   25 type  1   force =     0.00007449   -0.00011634    0.14679311
     atom   26 type  1   force =    -0.00004568   -0.00044375   -0.16728952
     atom   27 type  2   force =     0.00027291   -0.00015431   -0.07316310
     atom   28 type  2   force =     0.00003611   -0.00001401    0.02929021
     atom   29 type  2   force =    -0.02833445   -0.00048066   -0.00403142
     atom   30 type  2   force =     0.02852217   -0.00009181   -0.00305393
     atom   31 type  1   force =     0.00142028   -0.00038344    0.02143735
     atom   32 type  1   force =    -0.00107788    0.01731797    0.05977278
     atom   33 type  2   force =    -0.00006701    0.00005861   -0.00043102
     atom   34 type  2   force =     0.00023844    0.00033607   -0.03018895
     atom   35 type  2   force =    -0.00074495    0.00010081   -0.00020103
     atom   36 type  2   force =    -0.00017547   -0.00000978   -0.00019089
     atom   37 type  1   force =     0.00004194    0.00025994   -0.00009257
     atom   38 type  1   force =     0.00003977    0.00010525    0.00017032
     atom   39 type  2   force =    -0.00007607    0.00019347    0.00064297
     atom   40 type  2   force =    -0.00016407    0.00000733   -0.00043967
     atom   41 type  2   force =     0.00024854    0.00018943   -0.00021484
     atom   42 type  2   force =    -0.00038070    0.00022551   -0.00000254
     atom   43 type  1   force =    -0.00005612    0.00007692    0.00033678
     atom   44 type  1   force =    -0.00026664   -0.00021255   -0.00019159
     atom   45 type  2   force =     0.00007034    0.00008533    0.10023735
     atom   46 type  3   force =     0.00007588    0.00087872   -0.00013229
     atom   47 type  2   force =    -0.07498639   -0.00171458   -0.03411989
     atom   48 type  2   force =     0.07495954   -0.00127419   -0.03416635

     Total force =     0.413268     Total SCF correction =     0.000435
  @ DRIVER MODE: Message from server: STATUS
  @ DRIVER MODE: Message from server: GETFORCE
  @ DRIVER MODE: Returning v,forces,stress,ensemble

     Writing output data file ./calc.save/
  @ DRIVER MODE: Message from server: EXIT
  @ DRIVE MODE: Exiting

     General routines

     Parallel routines

   This run was terminated on:   2: 7:21  13Feb2022

   JOB DONE.