     Program PWSCF v.6.7GPU starts on 16Feb2022 at  0:32:33

     R & G space division:  proc/nbgrp/npool/nimage =      16
     Reading input from /storage/coda1/p-amedford6/0/bchen380/B22/N2_B/qe_3983488.sched-torque.pace.gatech.edu/pw.inp
Warning: card &CELL ignored
Warning: card   CELL_DYNAMICS='IPI', ignored
Warning: card / ignored

     Current dimensions of program PWSCF are:
     Max number of different atomic species (ntypx) = 10
     Max number of k-points (npk) =  40000
     Max angular momentum in pseudopotentials (lmaxx) =  3
     Message from routine cell_base_init:
     DEPRECATED: use true lattice parameter, not A to a.u. conversion factor
     file O.UPF: wavefunction(s)  2P renormalized

     IMPORTANT: XC functional enforced from input :
     Exchange-correlation= BEEF-VDW
                           (   1   4  43  14   2   0   0)
     Any further DFT definition will be discarded
     Please, verify this is what you really want

  @ DRIVER MODE: Connecting to
 qe_1064200_3983488.sched-torque.pace.gatech.edukn_bu6fo_scratch
  using UNIX socket
  @ DRIVER MODE: Message from server: STATUS
  @ DRIVER MODE: Message from server: INIT
  @ DRIVER MODE: Receiving replica           0          -1
  @ DRIVER MODE: Receiving encoded integer          25
  @ DRIVER MODE:  SCF:  T  FORCE:  T  STRESS:  F  VC:  F  ENSEMBLE:  F
  @ DRIVER MODE:  SCF:  T  FORCE:  T  STRESS:  F  VC:  F  ENSEMBLE:  F

     Using Slab Decomposition

     bravais-lattice index     =            0
     lattice parameter (alat)  =       1.8897  a.u.
     unit-cell volume          =    6658.9804 (a.u.)^3
     number of atoms/cell      =           50
     number of atomic types    =            4
     number of electrons       =       391.00
     number of Kohn-Sham states=          205
     kinetic-energy cutoff     =      36.7493  Ry
     charge density cutoff     =     367.4932  Ry
     scf convergence threshold =      7.3E-08
     mixing beta               =       0.0500
     number of iterations used =            8  plain     mixing
     Exchange-correlation= BEEF-VDW
                           (   1   4  43  14   2   0   0)

     celldm(1)=   1.889726  celldm(2)=   0.000000  celldm(3)=   0.000000
     celldm(4)=   0.000000  celldm(5)=   0.000000  celldm(6)=   0.000000

     crystal axes: (cart. coord. in units of alat)
               a(1) = (   6.579727   0.000000   0.000000 )
               a(2) = (  -0.000775   5.961596   0.000000 )
               a(3) = (   0.000000   0.000000  25.155947 )

     reciprocal axes: (cart. coord. in units 2 pi/alat)
               b(1) = (  0.151982  0.000020  0.000000 )
               b(2) = (  0.000000  0.167740  0.000000 )
               b(3) = (  0.000000  0.000000  0.039752 )

     PseudoPot. # 1 for Ti read from file:
     /storage/coda1/p-amedford6/0/shared/rich_project_chbe-medford/medford-share/data/pseudos_module/espresso/esp_pseudos_old/Ti.UPF
     MD5 check sum: 88a00a6731bd790ddea75d31a80cb452
     Pseudo is Ultrasoft + core correction, Zval = 12.0
     Generated by new atomic code, or converted to UPF format
     Using radial grid of  851 points,  6 beta functions with:
                l(1) =   0
                l(2) =   0
                l(3) =   1
                l(4) =   1
                l(5) =   2
                l(6) =   2
     Q(r) pseudized with  6 coefficients,  rinner =    1.000   1.000   1.000
                                                       1.000   1.000

     PseudoPot. # 2 for O  read from file:
     /storage/coda1/p-amedford6/0/shared/rich_project_chbe-medford/medford-share/data/pseudos_module/espresso/esp_pseudos_old/O.UPF
     MD5 check sum: 0234752ac141de4415c5fc33072bef88
     Pseudo is Projector augmented-wave + core cor, Zval =  6.0
     Generated using "atomic" code by A. Dal Corso  v.5.0.99 svn rev. 10869
     Shape of augmentation charge: BESSEL
     Using radial grid of 1095 points,  4 beta functions with:
                l(1) =   0
                l(2) =   0
                l(3) =   1
                l(4) =   1
     Q(r) pseudized with 0 coefficients

     PseudoPot. # 3 for B  read from file:
     /storage/coda1/p-amedford6/0/shared/rich_project_chbe-medford/medford-share/data/pseudos_module/espresso/esp_pseudos_old/B.UPF
     MD5 check sum: cc6de2960df11db49a60e589f9ebb39b
     Pseudo is Ultrasoft + core correction, Zval =  3.0
     Generated by new atomic code, or converted to UPF format
     Using radial grid of  781 points,  4 beta functions with:
                l(1) =   0
                l(2) =   0
                l(3) =   1
                l(4) =   1
     Q(r) pseudized with  8 coefficients,  rinner =    1.100   1.100   1.100

     PseudoPot. # 4 for N  read from file:
     /storage/coda1/p-amedford6/0/shared/rich_project_chbe-medford/medford-share/data/pseudos_module/espresso/esp_pseudos_old/N.UPF
     MD5 check sum: 16739722b17309cd8fe442a2ace49922
     Pseudo is Ultrasoft + core correction, Zval =  5.0
     Generated using "atomic" code by A. Dal Corso  v.5.1
     Using radial grid of 1085 points,  4 beta functions with:
                l(1) =   0
                l(2) =   0
                l(3) =   1
                l(4) =   1
     Q(r) pseudized with 0 coefficients

     atomic species   valence    mass     pseudopotential
        Ti1           12.00    47.86700     Ti( 1.00)
        O1             6.00    15.99900     O ( 1.00)
        B1             3.00    10.81000     B ( 1.00)
        N1             5.00    14.00700     N ( 1.00)

     Starting magnetic structure
     atomic species   magnetization
        Ti1          0.000
        O1           0.000
        B1           0.000
        N1           0.000

     No symmetry found

   Cartesian axes

     site n.     atom                  positions (alat units)
         1           Ti1 tau(   1) = (   0.0004258   2.9801865   6.0000000  )
         2           Ti1 tau(   2) = (   3.2906075   1.4906267   6.0002472  )
         3           O1  tau(   3) = (   0.0006271   0.0005054   7.9858123  )
         4           O1  tau(   4) = (   3.2906025   0.0005020   7.3038282  )
         5           O1  tau(   5) = (   4.5942328   1.4918067   9.2879030  )
         6           O1  tau(   6) = (   1.9868534   1.4903216   9.2879459  )
         7           Ti1 tau(   7) = (   3.2905683   2.9818392   9.1597947  )
         8           Ti1 tau(   8) = (   0.0009689   1.5052867   9.3302970  )
         9           O1  tau(   9) = (   3.2907689   0.0016648  11.3563317  )
        10           O1  tau(  10) = (   0.0007044   0.0001637  10.5878211  )
        11           O1  tau(  11) = (   1.3004573   1.4911895  12.6196604  )
        12           O1  tau(  12) = (   5.2803146   1.4910465  12.6198809  )
        13           Ti1 tau(  13) = (   0.0003545   2.9813121  12.7572432  )
        14           Ti1 tau(  14) = (   3.2903971   1.4912328  12.5002874  )
        15           O1  tau(  15) = (  -0.0002320   5.9576404  14.5977444  )
        16           O1  tau(  16) = (   3.2901645   0.0058045  13.9855309  )
        17           O1  tau(  17) = (   4.5492778   1.5221801  16.1329724  )
        18           O1  tau(  18) = (   2.0311275   1.5222091  16.1330501  )
        19           Ti1 tau(  19) = (   3.2902041   2.9895352  15.7368220  )
        20           Ti1 tau(  20) = (   0.0001478   1.4235607  15.9669019  )
        21           O1  tau(  21) = (   3.2904802   0.0005063   4.7018136  )
        22           O1  tau(  22) = (   0.0000052   5.9613278  17.1620205  )
        23           O1  tau(  23) = (   1.3043587   1.4918075   6.0039043  )
        24           O1  tau(  24) = (   5.2767064   1.4903225   6.0039473  )
        25           Ti1 tau(  25) = (   0.0000382   5.9609847   6.0000000  )
        26           Ti1 tau(  26) = (   3.2902200   4.4714249   6.0002472  )
        27           O1  tau(  27) = (   0.0002396   2.9813036   7.9858123  )
        28           O1  tau(  28) = (   3.2902150   2.9813002   7.3038282  )
        29           O1  tau(  29) = (   4.5938453   4.4726049   9.2879030  )
        30           O1  tau(  30) = (   1.9864658   4.4711199   9.2879459  )
        31           Ti1 tau(  31) = (   3.2909982   0.0016570   9.1583503  )
        32           Ti1 tau(  32) = (   0.0005865   4.4518293   9.3323505  )
        33           O1  tau(  33) = (   3.2903422   2.9801403  11.3468332  )
        34           O1  tau(  34) = (   0.0003571   2.9798178  10.5649370  )
        35           O1  tau(  35) = (   1.3005412   4.4692167  12.6173387  )
        36           O1  tau(  36) = (   5.2794693   4.4690741  12.6175999  )
        37           Ti1 tau(  37) = (  -0.0000806   5.9612980  12.5816508  )
        38           Ti1 tau(  38) = (   3.2900041   4.4658170  12.4917948  )
        39           O1  tau(  39) = (   0.0004188   2.9814100  14.6485654  )
        40           O1  tau(  40) = (   3.2900918   2.9860882  13.9373905  )
        41           O1  tau(  41) = (   4.5492228   4.4522151  16.1330783  )
        42           O1  tau(  42) = (   2.0303863   4.4519659  16.1333203  )
        43           Ti1 tau(  43) = (   3.2899546   0.0061948  15.7807570  )
        44           Ti1 tau(  44) = (  -0.0001637   4.5606593  15.9768108  )
        45           O1  tau(  45) = (   3.2900926   2.9813045   4.7018136  )
        46           B1  tau(  46) = (   6.5792260   2.9590799  17.8640153  )
        47           O1  tau(  47) = (   1.3039711   4.4726057   6.0039043  )
        48           O1  tau(  48) = (   5.2763189   4.4711207   6.0039473  )
        49           N1  tau(  49) = (   6.3491669   2.7825235  19.0640153  )
        50           N1  tau(  50) = (   6.2271734   2.6017940  20.1640153  )

     number of k points=    10  Fermi-Dirac smearing, width (Ry)=  0.0007
                       cart. coord. in units 2pi/alat
        k(    1) = (   0.0000000   0.0000000   0.0000000), wk =   0.0625000
        k(    2) = (   0.0000000   0.0419351   0.0000000), wk =   0.1250000
        k(    3) = (   0.0000000  -0.0838702   0.0000000), wk =   0.0625000
        k(    4) = (   0.0379955   0.0000049   0.0000000), wk =   0.1250000
        k(    5) = (   0.0379955   0.0419400   0.0000000), wk =   0.1250000
        k(    6) = (   0.0379955  -0.0838652   0.0000000), wk =   0.1250000
        k(    7) = (   0.0379955  -0.0419301   0.0000000), wk =   0.1250000
        k(    8) = (  -0.0759910  -0.0000099   0.0000000), wk =   0.0625000
        k(    9) = (  -0.0759910   0.0419252   0.0000000), wk =   0.1250000
        k(   10) = (  -0.0759910  -0.0838800   0.0000000), wk =   0.0625000

     Check: negative core charge=   -0.000007
     Generating pointlists ...
     new r_m :   0.7405 (alat units)  1.3994 (a.u.) for type    1
     new r_m :   0.7405 (alat units)  1.3994 (a.u.) for type    2
     new r_m :   0.5092 (alat units)  0.9623 (a.u.) for type    3
     new r_m :   0.4626 (alat units)  0.8741 (a.u.) for type    4

     Initial potential from superposition of free atoms

     starting charge  374.99895, renormalised to  391.00000

     negative rho (up, down):  1.153E-02 1.153E-02

     %%%%%%%%%%%%%%%%%%%%%%%%%%%%%%%%%%%%%%%%%%%%%%%%%%%%%%%%%%%%%%%%%%%%%%%%
[...]
     atom    3 type  2   force =     0.00008460    0.00003992   -0.03340940
     atom    4 type  2   force =     0.00002825    0.00003993    0.04815809
     atom    5 type  2   force =    -0.02143481   -0.00098402    0.00434768
     atom    6 type  2   force =     0.02135155   -0.00051482    0.00435377
     atom    7 type  1   force =     0.00001146    0.00014309   -0.00338807
     atom    8 type  1   force =    -0.00000830   -0.00066720   -0.00159847
     atom    9 type  2   force =    -0.00000002    0.00004881    0.00300656
     atom   10 type  2   force =     0.00003260   -0.00007262   -0.00099202
     atom   11 type  2   force =    -0.00255010    0.00069553    0.00105234
     atom   12 type  2   force =     0.00245203    0.00069834    0.00099657
     atom   13 type  1   force =    -0.00001702   -0.00009647   -0.01170574
     atom   14 type  1   force =     0.00005151    0.00052439   -0.00135624
     atom   15 type  2   force =    -0.00048218    0.00118696    0.02459639
     atom   16 type  2   force =     0.00004646   -0.00048471   -0.00033951
     atom   17 type  2   force =     0.00004870   -0.00447307   -0.00607864
     atom   18 type  2   force =     0.00114988   -0.00520901   -0.00734741
     atom   19 type  1   force =    -0.00119492   -0.00108203    0.00118844
     atom   20 type  1   force =     0.00228609   -0.00497330    0.01336026
     atom   21 type  2   force =     0.00006200    0.00008003    0.10241670
     atom   22 type  2   force =    -0.00074594    0.00197460   -0.01456109
     atom   23 type  2   force =    -0.06771264    0.00064507   -0.03065596
     atom   24 type  2   force =     0.06763263    0.00110765   -0.03069745
     atom   25 type  1   force =     0.00009312   -0.00000859    0.12186721
     atom   26 type  1   force =    -0.00008516   -0.00018655   -0.17803800
     atom   27 type  2   force =     0.00002606   -0.00004393   -0.03121209
     atom   28 type  2   force =     0.00001961   -0.00000457    0.04827279
     atom   29 type  2   force =    -0.02135758    0.00035049    0.00454795
     atom   30 type  2   force =     0.02128596    0.00086078    0.00454919
     atom   31 type  1   force =     0.00000275   -0.00018814   -0.00354468
     atom   32 type  1   force =    -0.00001121    0.00045695   -0.00158754
     atom   33 type  2   force =    -0.00003926   -0.00006235    0.00384850
     atom   34 type  2   force =    -0.00001785    0.00036769   -0.00247234
     atom   35 type  2   force =    -0.00282869   -0.00038187    0.00109871
     atom   36 type  2   force =     0.00273660   -0.00037941    0.00105720
     atom   37 type  1   force =     0.00005837    0.00010689   -0.01116732
     atom   38 type  1   force =     0.00004515   -0.00026586   -0.00012406
     atom   39 type  2   force =     0.00007441   -0.00192929    0.02566106
     atom   40 type  2   force =     0.00005683   -0.00019572    0.00136648
     atom   41 type  2   force =    -0.00159063    0.00411307   -0.00635307
     atom   42 type  2   force =     0.00275287    0.00490632   -0.00758521
     atom   43 type  1   force =    -0.00064536    0.00023634   -0.00365572
     atom   44 type  1   force =     0.00221627    0.00303566    0.01896216
     atom   45 type  2   force =     0.00006216    0.00008758    0.10243874
     atom   46 type  3   force =     0.04004808    0.04119996   -0.30266759
     atom   47 type  2   force =    -0.06772070   -0.00106051   -0.03066123
     atom   48 type  2   force =     0.06764561   -0.00065597   -0.03070336
     atom   49 type  4   force =    -0.01040147   -0.00144022    0.04748163
     atom   50 type  4   force =    -0.03348560   -0.03771266    0.23326303

     Total force =     0.547260     Total SCF correction =     0.000523
  @ DRIVER MODE: Message from server: STATUS
  @ DRIVER MODE: Message from server: GETFORCE
  @ DRIVER MODE: Returning v,forces,stress,ensemble

     Writing output data file ./calc.save/
  @ DRIVER MODE: Message from server: STATUS
  @ DRIVER MODE: Message from server: INIT
  @ DRIVER MODE: Receiving replica           0           0
  @ DRIVER MODE: Receiving encoded integer          25
  @ DRIVER MODE:  SCF:  T  FORCE:  T  STRESS:  F  VC:  F  ENSEMBLE:  F
  @ DRIVER MODE:  SCF:  T  FORCE:  T  STRESS:  F  VC:  F  ENSEMBLE:  F
  @ DRIVER MODE: Message from server: STATUS
  @ DRIVER MODE: Message from server: POSDATA
  @ DRIVER MODE: Reading and sharing positions
  @ DRIVER MODE: Received positions
     NEW-OLD atomic charge density approx. for the potential

     Check: negative core charge=   -0.000007

[...]

     Generating pointlists ...

[...]

     Generating pointlists ...
     new r_m :   0.3916 (alat units)  0.7399 (a.u.) for type    4

[...]

     Writing output data file ./calc.save/
  @ DRIVER MODE: Message from server: STATUS
  @ DRIVER MODE: Message from server: INIT
  @ DRIVER MODE: Receiving replica           0           0
  @ DRIVER MODE: Receiving encoded integer          25
  @ DRIVER MODE:  SCF:  T  FORCE:  T  STRESS:  F  VC:  F  ENSEMBLE:  F
  @ DRIVER MODE:  SCF:  T  FORCE:  T  STRESS:  F  VC:  F  ENSEMBLE:  F
  @ DRIVER MODE: Message from server: STATUS
  @ DRIVER MODE: Message from server: POSDATA
  @ DRIVER MODE: Reading and sharing positions
  @ DRIVER MODE: Received positions
     NEW-OLD atomic charge density approx. for the potential

     Check: negative core charge=   -0.000007

[...]

     Generating pointlists ...

     Self-consistent Calculation

     iteration #  1     ecut=    36.75 Ry     beta= 0.05
     Davidson diagonalization with overlap
     c_bands:  2 eigenvalues not converged
     c_bands:  3 eigenvalues not converged
     c_bands:  2 eigenvalues not converged
     c_bands:  2 eigenvalues not converged
     c_bands:  1 eigenvalues not converged
     c_bands:  1 eigenvalues not converged
     c_bands:  1 eigenvalues not converged
     c_bands:  1 eigenvalues not converged
     c_bands:  1 eigenvalues not converged
     c_bands:  1 eigenvalues not converged
     ethr =  2.80E-11,  avg # of iterations = 18.3

[...]

     total energy              =   -3288.77947592 Ry
     estimated scf accuracy    <       0.00000008 Ry

[...]

     iteration # 19     ecut=    36.75 Ry     beta= 0.05
     Davidson diagonalization with overlap
     ethr =  1.94E-11,  avg # of iterations =  3.4

[...]

     Adding external electric field

     Computed dipole along edir(3) :
        Dipole                0.1500 Ry au,          0.3812 Debye
        Dipole field          0.0003 Ry au,

        Potential amp.       -0.0262 Ry
        Total length         46.3494 bohr

     Magnetic moment per site  (integrated on atomic sphere of radius R)
     atom   1 (R=0.741)  charge=  8.0729  magn= -0.1127
     atom   2 (R=0.741)  charge=  8.0583  magn= -0.0053
     atom   3 (R=0.741)  charge=  5.0064  magn=  0.0076
     atom   4 (R=0.741)  charge=  5.0707  magn=  0.0018
     atom   5 (R=0.741)  charge=  5.0325  magn=  0.0017
     atom   6 (R=0.741)  charge=  5.0325  magn=  0.0018
     atom   7 (R=0.741)  charge=  8.0530  magn= -0.0152
     atom   8 (R=0.741)  charge=  8.0440  magn= -0.0259
     atom   9 (R=0.741)  charge=  5.0487  magn=  0.0071
     atom  10 (R=0.741)  charge=  5.0453  magn=  0.0044
     atom  11 (R=0.741)  charge=  5.0308  magn=  0.0080
     atom  12 (R=0.741)  charge=  5.0313  magn=  0.0080
     atom  13 (R=0.741)  charge=  8.0501  magn= -0.0404
     atom  14 (R=0.741)  charge=  8.0599  magn= -0.0597
     atom  15 (R=0.741)  charge=  5.0210  magn=  0.0210
     atom  16 (R=0.741)  charge=  5.0437  magn=  0.0059
     atom  17 (R=0.741)  charge=  5.0183  magn=  0.0116
     atom  18 (R=0.741)  charge=  5.0210  magn=  0.0101
     atom  19 (R=0.741)  charge=  8.0856  magn= -0.0314
     atom  20 (R=0.741)  charge=  8.0684  magn=  0.0121
     atom  21 (R=0.741)  charge=  4.9119  magn=  0.0037
     atom  22 (R=0.741)  charge=  4.9940  magn=  0.0332
     atom  23 (R=0.741)  charge=  5.0258  magn=  0.0118
     atom  24 (R=0.741)  charge=  5.0259  magn=  0.0118
     atom  25 (R=0.741)  charge=  8.0716  magn= -0.1020
     atom  26 (R=0.741)  charge=  8.0583  magn= -0.0053
     atom  27 (R=0.741)  charge=  5.0147  magn=  0.0087
     atom  28 (R=0.741)  charge=  5.0706  magn=  0.0017
     atom  29 (R=0.741)  charge=  5.0323  magn=  0.0017
     atom  30 (R=0.741)  charge=  5.0323  magn=  0.0017
     atom  31 (R=0.741)  charge=  8.0535  magn= -0.0174
     atom  32 (R=0.741)  charge=  8.0439  magn= -0.0256
     atom  33 (R=0.741)  charge=  5.0466  magn=  0.0085
     atom  34 (R=0.741)  charge=  5.0200  magn=  0.0028
     atom  35 (R=0.741)  charge=  5.0310  magn=  0.0082
     atom  36 (R=0.741)  charge=  5.0317  magn=  0.0082
     atom  37 (R=0.741)  charge=  8.0498  magn= -0.0524
     atom  38 (R=0.741)  charge=  8.0601  magn= -0.0615
     atom  39 (R=0.741)  charge=  5.0261  magn=  0.0014
     atom  40 (R=0.741)  charge=  5.0509  magn=  0.0053
     atom  41 (R=0.741)  charge=  5.0184  magn=  0.0128
     atom  42 (R=0.741)  charge=  5.0205  magn=  0.0117
     atom  43 (R=0.741)  charge=  8.0851  magn= -0.0311
     atom  44 (R=0.741)  charge=  8.0726  magn=  0.0151
     atom  45 (R=0.741)  charge=  4.9120  magn=  0.0036
     atom  46 (R=0.509)  charge=  0.5022  magn=  0.1441
     atom  47 (R=0.741)  charge=  5.0258  magn=  0.0118
     atom  48 (R=0.741)  charge=  5.0259  magn=  0.0118
     atom  49 (R=0.392)  charge=  1.1514  magn= -0.0194
     atom  50 (R=0.392)  charge=  1.0960  magn=  0.2132

     End of self-consistent calculation

 ------ SPIN UP ------------

[...]

 ------ SPIN DOWN ----------

[...]

          k = 0.0380-0.0419 0.0000 ( 25077 PWs)   bands (ev):

[...]

          k =-0.0760-0.0839 0.0000 ( 25128 PWs)   bands (ev):

   -56.2275 -56.2125 -56.1946 -56.1942 -56.1355 -56.0809 -56.0806 -56.0571
   -55.9790 -55.9738 -55.9524 -55.9466 -55.8840 -55.7786 -55.1839 -55.1839
   -32.5228 -32.5215 -32.4723 -32.4613 -32.4465 -32.4427 -32.4393 -32.4307
   -32.3803 -32.3751 -32.3609 -32.3490 -32.3470 -32.3266 -32.3222 -32.3157
   -32.2966 -32.2833 -32.2823 -32.2733 -32.2677 -32.2477 -32.2299 -32.2257
   -32.2214 -32.2193 -32.2139 -32.2125 -32.2059 -32.1533 -32.1503 -32.1416
   -32.1237 -32.1048 -32.1027 -32.1017 -32.0955 -32.0625 -32.0548 -31.9904
   -31.9679 -31.8972 -31.4541 -31.4541 -31.3680 -31.3679 -31.3340 -31.3339
   -19.5537 -16.4425 -16.4150 -16.2145 -16.1801 -16.1717 -16.0781 -16.0177
   -15.9768 -15.9703 -15.9614 -15.9265 -15.9147 -15.8738 -15.8584 -15.7885
   -15.7771 -15.7643 -15.7389 -15.6991 -15.6855 -15.6837 -15.6329 -15.6204
   -15.5717 -15.5700 -15.5399 -15.4518 -15.4245 -15.3957 -13.7525 -13.7503
   -10.3364  -3.6624  -3.6258  -3.5553  -3.4814  -3.3579  -3.3198  -3.3099
    -3.2309  -3.1304  -3.1248  -3.1044  -3.0526  -3.0089  -2.9956  -2.9939
    -2.9810  -2.9724  -2.9661  -2.9421  -2.9288  -2.9206  -2.8771  -2.8382
    -2.8196  -2.7782  -2.7762  -2.7707  -2.7239  -2.7121  -2.6988  -2.6973
    -2.6932  -2.6763  -2.4326  -2.4284  -2.3454  -2.2857  -2.2839  -2.2610
    -2.2518  -2.2095  -2.1843  -2.1276  -2.0517  -1.9669  -1.8903  -1.8845
    -1.8821  -1.8320  -1.7719  -1.6208  -1.6057  -1.5665  -1.5143  -1.4748
    -1.4489  -1.3972  -1.3158  -1.2723  -1.2528  -1.1691  -1.1179  -1.1025
    -1.0892  -1.0718  -1.0278  -0.9502  -0.9079  -0.8703  -0.8129  -0.7503
    -0.7331  -0.7175  -0.7096  -0.6982  -0.6031  -0.5559  -0.2652  -0.2499
    -0.1827  -0.1514  -0.1067  -0.0261   0.0311   0.1320   0.1403   0.2834
     0.2985   0.3755   0.3791   0.4420   0.4758   0.5802   1.1916   1.1940
     1.2966   1.3050   3.0393   3.1325   3.1735   3.2176   3.3153   3.3688
     3.4041   3.4462   3.4533   3.4565   3.5866

     the Fermi energy is     3.0456 ev

!    total energy              =   -3288.77947597 Ry
     estimated scf accuracy    <       0.00000006 Ry
     smearing contrib. (-TS)   =      -0.00041323 Ry
     internal energy E=F+TS    =   -3288.77906274 Ry

     The total energy is F=E-TS. E is the sum of the following terms:
     one-electron contribution =  -23936.50057460 Ry
     hartree contribution      =   12059.94201628 Ry
     xc contribution           =    -554.31260299 Ry
     ewald contribution        =    9454.00220270 Ry
     electric field correction =       0.00004246 Ry
     one-center paw contrib.   =    -311.91014659 Ry

     total magnetization       =     1.13 Bohr mag/cell
     absolute magnetization    =     3.20 Bohr mag/cell

     convergence has been achieved in  19 iterations

     negative rho (up, down):  1.115E-02 1.034E-02

     Forces acting on atoms (cartesian axes, Ry/au):

     atom    1 type  1   force =     0.00005808    0.00004919    0.11017982
     atom    2 type  1   force =    -0.00009231   -0.00007516   -0.17867969
     atom    3 type  2   force =     0.00006676    0.00007708   -0.02981605
     atom    4 type  2   force =     0.00001064    0.00005835    0.04859356
     atom    5 type  2   force =    -0.02096960   -0.00121366    0.00536011
     atom    6 type  2   force =     0.02085576   -0.00074692    0.00530629
     atom    7 type  1   force =    -0.00008594    0.00033156   -0.00542766
     atom    8 type  1   force =    -0.00000930    0.00630058   -0.00812031
     atom    9 type  2   force =    -0.00003626    0.00001098   -0.00008611
     atom   10 type  2   force =     0.00011082    0.00029989    0.00659789
     atom   11 type  2   force =    -0.00018909    0.00013185    0.00018107
     atom   12 type  2   force =     0.00011652    0.00015395    0.00011705
     atom   13 type  1   force =     0.00005977   -0.00000723    0.00013075
     atom   14 type  1   force =    -0.00013635    0.00029111    0.00025536
     atom   15 type  2   force =    -0.00004169   -0.00012103    0.00011717
     atom   16 type  2   force =     0.00008922   -0.00002876   -0.00009660
     atom   17 type  2   force =    -0.00005458    0.00004320    0.00011905
     atom   18 type  2   force =    -0.00002212   -0.00003112    0.00002152
     atom   19 type  1   force =    -0.00001379    0.00002126    0.00025815
     atom   20 type  1   force =     0.00004163    0.00021428    0.00000723
     atom   21 type  2   force =     0.00005184    0.00008472    0.10258916
     atom   22 type  2   force =    -0.00003927   -0.00006569   -0.00015207
     atom   23 type  2   force =    -0.06830455    0.00049769   -0.03042489
     atom   24 type  2   force =     0.06820326    0.00092658   -0.03046979
     atom   25 type  1   force =     0.00008002   -0.00001363    0.12019004
     atom   26 type  1   force =    -0.00010532   -0.00001803   -0.17864082
     atom   27 type  2   force =     0.00003321   -0.00002776   -0.02754438
     atom   28 type  2   force =     0.00001161   -0.00000666    0.04932742
     atom   29 type  2   force =    -0.02085265    0.00061499    0.00548890
     atom   30 type  2   force =     0.02075603    0.00112649    0.00543717
     atom   31 type  1   force =    -0.00001273   -0.00036975   -0.00627587
     atom   32 type  1   force =    -0.00001025   -0.00653065   -0.00773672
     atom   33 type  2   force =    -0.00000712   -0.00003596    0.00028944
     atom   34 type  2   force =     0.00012574    0.00039597    0.00025377
     atom   35 type  2   force =    -0.00023842   -0.00017239    0.00020028
     atom   36 type  2   force =     0.00016162   -0.00019156    0.00013669
     atom   37 type  1   force =     0.00012659    0.00013469   -0.00011986
     atom   38 type  1   force =    -0.00014107   -0.00032927    0.00024616
     atom   39 type  2   force =    -0.00004831   -0.00002626   -0.00023269
     atom   40 type  2   force =    -0.00000100   -0.00002220    0.00002754
     atom   41 type  2   force =    -0.00038872   -0.00010823    0.00005240
     atom   42 type  2   force =     0.00034848   -0.00002835   -0.00000833
     atom   43 type  1   force =     0.00019210   -0.00004555    0.00025160
     atom   44 type  1   force =    -0.00004155   -0.00004615    0.00037884
     atom   45 type  2   force =     0.00005322    0.00008716    0.10262703
     atom   46 type  3   force =     0.00014086   -0.00014692   -0.00008493
     atom   47 type  2   force =    -0.06830107   -0.00088908   -0.03041933
     atom   48 type  2   force =     0.06820778   -0.00046973   -0.03045277
     atom   49 type  4   force =     0.00009189   -0.00013062    0.00014157
     atom   50 type  4   force =     0.00014961    0.00004675   -0.00009417

     Total force =     0.377426     Total SCF correction =     0.000791
  @ DRIVER MODE: Message from server: STATUS
  @ DRIVER MODE: Message from server: GETFORCE
  @ DRIVER MODE: Returning v,forces,stress,ensemble

     Writing output data file ./calc.save/
  @ DRIVER MODE: Message from server: EXIT
  @ DRIVE MODE: Exiting

     General routines

     Parallel routines

   This run was terminated on:   6:35:27  16Feb2022

   JOB DONE.